# MPiPi Settings File

# Charges
set type 3   charge 0.750000
set type 5   charge 0.750000
set type 7   charge -0.750000
set type 8   charge -0.750000
set type 16  charge 0.375000
set type 21  charge -0.750000
set type 22  charge -0.750000
set type 23  charge -0.750000
set type 24  charge -0.750000

# Bonds
bond_coeff 1   9.600000 3.810000
bond_coeff 2   9.600000 5.000000
bond_coeff 3   9.600000 6.058000
bond_coeff 4   9.600000 9.671000
bond_coeff 5   9.600000 5.262000
bond_coeff 6   9.600000 4.064000
bond_coeff 7   9.600000 5.041000
bond_coeff 8   9.600000 3.509000
bond_coeff 9   9.600000 4.225000
bond_coeff 10  9.600000 4.810000
bond_coeff 11  9.600000 6.570000
bond_coeff 12  9.600000 6.217000
bond_coeff 13  9.600000 6.225000
bond_coeff 14  9.600000 7.461000
bond_coeff 15  9.600000 8.141000
bond_coeff 16  9.600000 7.305000
bond_coeff 17  9.600000 4.827000
bond_coeff 18  9.600000 4.729000
bond_coeff 19  9.600000 7.577000
bond_coeff 20  9.600000 6.535000
bond_coeff 21  9.600000 7.976000
bond_coeff 22  9.600000 5.688000

# Pair Style
pair_style  hybrid/overlay wf/cut 25.0 coul/debye 0.126 0.0

# Pairwise Interactions
pair_coeff 1  1  wf/cut 0.039564 6.467951 1 2  19.403853
pair_coeff 1  2  wf/cut 0.068017 5.576178 1 2  16.728535
pair_coeff 1  3  wf/cut 0.032686 6.567784 1 2  19.703351
pair_coeff 1  4  wf/cut 0.035161 6.178228 1 2  18.534684
pair_coeff 1  5  wf/cut 0.171515 6.643965 1 2  19.931895
pair_coeff 1  6  wf/cut 0.044522 5.868502 1 2  17.605506
pair_coeff 1  7  wf/cut 0.073172 6.141460 1 2  18.424379
pair_coeff 1  8  wf/cut 0.077577 6.318177 1 2  18.954530
pair_coeff 1  9  wf/cut 0.229375 6.590037 1 2  19.770112
pair_coeff 1  10 wf/cut 0.022571 6.320572 1 2  18.961715
pair_coeff 1  11 wf/cut 0.025281 6.483444 1 2  19.450331
pair_coeff 1  12 wf/cut 0.120006 6.365188 1 2  19.095564
pair_coeff 1  13 wf/cut 0.294931 6.755728 1 2  20.267185
pair_coeff 1  14 wf/cut 0.215603 6.538209 1 2  19.614626
pair_coeff 1  15 wf/cut 0.050582 5.938941 1 2  17.816822
pair_coeff 1  16 wf/cut 0.203491 6.392507 1 2  19.177522
pair_coeff 1  17 wf/cut 0.116706 6.188018 1 2  18.564055
pair_coeff 1  18 wf/cut 0.059120 6.134464 1 2  18.403392
pair_coeff 1  19 wf/cut 0.054437 6.094295 1 2  18.282884
pair_coeff 1  20 wf/cut 0.019979 6.496393 1 2  19.489179
pair_coeff 1  21 wf/cut 0.275782 7.453975 1 3  22.361926
pair_coeff 1  22 wf/cut 0.187282 7.343975 1 3  22.031926
pair_coeff 1  23 wf/cut 0.277782 7.488975 1 3  22.466926
pair_coeff 1  24 wf/cut 0.172282 7.318975 1 3  21.956926
pair_coeff 1  25 wf/cut 0.107742 7.125373 1 3  22.084811
pair_coeff 1  26 wf/cut 0.112459 6.642016 1 3  19.327799
pair_coeff 1  27 wf/cut 0.114646 6.584439 1 3  22.176201
pair_coeff 1  28 wf/cut 0.082226 6.724376 1 2  19.084333
pair_coeff 1  29 wf/cut 0.082226 6.724376 1 2  19.084333
pair_coeff 1  30 wf/cut 0.064923 6.526823 1 2  18.278777
pair_coeff 1  31 wf/cut 0.084530 6.804880 1 2  21.204314
pair_coeff 1  32 wf/cut 0.032029 6.576099 1 3  21.366476
pair_coeff 1  33 wf/cut 0.095578 6.600359 1 3  18.576091
pair_coeff 1  34 wf/cut 0.063029 6.487548 1 4  18.923073
pair_coeff 1  35 wf/cut 0.072665 6.645730 1 2  19.072317
pair_coeff 1  36 wf/cut 0.079480 6.512070 1 2  18.709477
pair_coeff 1  37 wf/cut 0.103204 6.645251 1 2  19.294528
pair_coeff 1  38 wf/cut 0.029675 6.614530 1 2  19.080054
pair_coeff 1  39 wf/cut 0.114400 6.996672 1 3  18.754136
pair_coeff 1  40 wf/cut 0.034966 6.623633 1 3  18.832595
pair_coeff 1  41 wf/cut 0.089065 6.891071 1 3  21.180039
pair_coeff 1  42 wf/cut 0.035030 6.516824 1 3  19.449896
pair_coeff 1  43 wf/cut 0.106783 6.711075 1 2  18.620142
pair_coeff 1  44 wf/cut 0.122533 6.658947 1 3  19.457197
pair_coeff 1  45 wf/cut 0.029675 6.614530 1 2  19.080054
pair_coeff 1  46 wf/cut 0.103204 6.645251 1 2  19.294528
pair_coeff 1  47 wf/cut 0.087124 7.117428 1 3  21.906014
pair_coeff 1  48 wf/cut 0.030586 6.612145 1 2  19.077769
pair_coeff 1  49 wf/cut 0.103643 6.654046 1 4  18.885363
pair_coeff 1  50 wf/cut 0.029675 6.614530 1 2  19.080054
pair_coeff 1  51 wf/cut 0.103643 6.654046 1 4  18.885363
pair_coeff 1  52 wf/cut 0.119425 6.827429 1 2  22.055438
pair_coeff 1  53 wf/cut 0.083351 6.623260 1 3  18.496447
pair_coeff 1  54 wf/cut 0.074439 6.528651 1 3  18.930154
pair_coeff 1  55 wf/cut 0.113057 6.579275 1 3  22.206609
pair_coeff 1  56 wf/cut 0.033477 6.586069 1 3  21.232897
pair_coeff 1  57 wf/cut 0.033477 6.586069 1 3  21.232897
pair_coeff 1  58 wf/cut 0.077342 6.749281 1 3  18.650014
pair_coeff 1  59 wf/cut 0.104040 6.613907 1 3  19.371251
pair_coeff 1  60 wf/cut 0.083863 6.582137 1 3  21.181907
pair_coeff 1  61 wf/cut 0.034966 6.623633 1 3  18.832595
pair_coeff 1  62 wf/cut 0.099950 6.522116 1 3  18.963237
pair_coeff 2  2  wf/cut 0.096470 4.695110 1 2  14.085331
pair_coeff 2  3  wf/cut 0.061139 5.671338 1 2  17.014015
pair_coeff 2  4  wf/cut 0.063614 5.284425 1 2  15.853275
pair_coeff 2  5  wf/cut 0.199968 5.766386 1 2  17.299159
pair_coeff 2  6  wf/cut 0.072975 4.980135 1 2  14.940404
pair_coeff 2  7  wf/cut 0.101625 5.259255 1 2  15.777764
pair_coeff 2  8  wf/cut 0.106030 5.436375 1 2  16.309124
pair_coeff 2  9  wf/cut 0.257828 5.713165 1 2  17.139496
pair_coeff 2  10 wf/cut 0.051024 5.412393 1 2  16.237180
pair_coeff 2  11 wf/cut 0.053734 5.578930 1 2  16.736791
pair_coeff 2  12 wf/cut 0.148459 5.486299 1 2  16.458898
pair_coeff 2  13 wf/cut 0.323384 5.879238 1 2  17.637714
pair_coeff 2  14 wf/cut 0.244056 5.661219 1 2  16.983656
pair_coeff 2  15 wf/cut 0.079035 5.052525 1 2  15.157574
pair_coeff 2  16 wf/cut 0.231944 5.515412 1 2  16.546235
pair_coeff 2  17 wf/cut 0.145159 5.309016 1 2  15.927049
pair_coeff 2  18 wf/cut 0.087573 5.249991 1 2  15.749972
pair_coeff 2  19 wf/cut 0.082890 5.208723 1 2  15.626168
pair_coeff 2  20 wf/cut 0.048432 5.580329 1 2  16.740988
pair_coeff 2  21 wf/cut 0.304235 6.567555 1 3  19.702665
pair_coeff 2  22 wf/cut 0.215735 6.457555 1 3  19.372665
pair_coeff 2  23 wf/cut 0.306235 6.602555 1 3  19.807665
pair_coeff 2  24 wf/cut 0.200735 6.432555 1 3  19.297665
pair_coeff 2  25 wf/cut 0.168240 6.238952 1 3  19.425550
pair_coeff 2  26 wf/cut 0.175606 5.755596 1 3  16.668538
pair_coeff 2  27 wf/cut 0.179022 5.698019 1 3  19.516940
pair_coeff 2  28 wf/cut 0.128397 5.837955 1 2  16.425072
pair_coeff 2  29 wf/cut 0.128397 5.837955 1 2  16.425072
pair_coeff 2  30 wf/cut 0.101377 5.640402 1 2  15.619516
pair_coeff 2  31 wf/cut 0.131995 5.918459 1 2  18.545053
pair_coeff 2  32 wf/cut 0.050013 5.689679 1 3  18.707215
pair_coeff 2  33 wf/cut 0.149246 5.713939 1 3  15.916830
pair_coeff 2  34 wf/cut 0.098421 5.601128 1 4  16.263812
pair_coeff 2  35 wf/cut 0.113467 5.759309 1 2  16.413056
pair_coeff 2  36 wf/cut 0.124109 5.625649 1 2  16.050216
pair_coeff 2  37 wf/cut 0.161154 5.758830 1 2  16.635267
pair_coeff 2  38 wf/cut 0.046338 5.728110 1 2  16.420793
pair_coeff 2  39 wf/cut 0.178638 6.110252 1 3  16.094875
pair_coeff 2  40 wf/cut 0.054600 5.737213 1 3  16.173334
pair_coeff 2  41 wf/cut 0.139077 6.004651 1 3  18.520778
pair_coeff 2  42 wf/cut 0.054700 5.630404 1 3  16.790636
pair_coeff 2  43 wf/cut 0.166743 5.824655 1 2  15.960881
pair_coeff 2  44 wf/cut 0.191337 5.772526 1 3  16.797936
pair_coeff 2  45 wf/cut 0.046338 5.728110 1 2  16.420793
pair_coeff 2  46 wf/cut 0.161154 5.758830 1 2  16.635267
pair_coeff 2  47 wf/cut 0.136046 6.231008 1 3  19.246753
pair_coeff 2  48 wf/cut 0.047760 5.725725 1 2  16.418508
pair_coeff 2  49 wf/cut 0.161839 5.767626 1 4  16.226102
pair_coeff 2  50 wf/cut 0.046338 5.728110 1 2  16.420793
pair_coeff 2  51 wf/cut 0.161839 5.767626 1 4  16.226102
pair_coeff 2  52 wf/cut 0.186484 5.941009 1 2  19.396177
pair_coeff 2  53 wf/cut 0.130154 5.736839 1 3  15.837186
pair_coeff 2  54 wf/cut 0.116237 5.642231 1 3  16.270893
pair_coeff 2  55 wf/cut 0.176540 5.692854 1 3  19.547348
pair_coeff 2  56 wf/cut 0.052275 5.699648 1 3  18.573636
pair_coeff 2  57 wf/cut 0.052275 5.699648 1 3  18.573636
pair_coeff 2  58 wf/cut 0.120770 5.862860 1 3  15.990753
pair_coeff 2  59 wf/cut 0.162460 5.727487 1 3  16.711990
pair_coeff 2  60 wf/cut 0.130954 5.695717 1 3  18.522646
pair_coeff 2  61 wf/cut 0.054600 5.737213 1 3  16.173334
pair_coeff 2  62 wf/cut 0.156073 5.635696 1 3  16.303976
pair_coeff 3  3  wf/cut 0.019117 6.671341 1 2  20.014022
pair_coeff 3  4  wf/cut 0.028283 6.279400 1 2  18.838200
pair_coeff 3  5  wf/cut 0.121938 6.738192 1 2  20.214576
pair_coeff 3  6  wf/cut 0.037644 5.966686 1 2  17.900059
pair_coeff 3  7  wf/cut 0.000493 6.236987 1 2  18.710962
pair_coeff 3  8  wf/cut 0.000526 6.413575 1 2  19.240725
pair_coeff 3  9  wf/cut 0.102701 6.684083 1 2  20.052250
pair_coeff 3  10 wf/cut 0.015693 6.433541 1 2  19.300623
pair_coeff 3  11 wf/cut 0.018403 6.592558 1 2  19.777673
pair_coeff 3  12 wf/cut 0.113128 6.459694 1 2  19.379081
pair_coeff 3  13 wf/cut 0.104796 6.849685 1 2  20.549056
pair_coeff 3  14 wf/cut 0.115276 6.632280 1 2  19.896841
pair_coeff 3  15 wf/cut 0.043704 6.036180 1 2  18.108539
pair_coeff 3  16 wf/cut 0.087370 6.486603 1 2  19.459809
pair_coeff 3  17 wf/cut 0.109828 6.282546 1 2  18.847638
pair_coeff 3  18 wf/cut 0.052242 6.231062 1 2  18.693185
pair_coeff 3  19 wf/cut 0.047559 6.191154 1 2  18.573461
pair_coeff 3  20 wf/cut 0.013101 6.617996 1 2  19.853989
pair_coeff 3  21 wf/cut 0.159335 7.555670 1 3  22.667011
pair_coeff 3  22 wf/cut 0.106235 7.445670 1 3  22.337011
pair_coeff 3  23 wf/cut 0.160535 7.590670 1 3  22.772011
pair_coeff 3  24 wf/cut 0.097235 7.420670 1 3  22.262011
pair_coeff 3  25 wf/cut 0.074893 7.227067 1 3  22.389896
pair_coeff 3  26 wf/cut 0.078172 6.743711 1 3  19.632883
pair_coeff 3  27 wf/cut 0.079693 6.686134 1 3  22.481286
pair_coeff 3  28 wf/cut 0.057157 6.826071 1 2  19.389417
pair_coeff 3  29 wf/cut 0.057157 6.826071 1 2  19.389417
pair_coeff 3  30 wf/cut 0.045129 6.628518 1 2  18.583862
pair_coeff 3  31 wf/cut 0.058759 6.906574 1 2  21.509399
pair_coeff 3  32 wf/cut 0.022264 6.677794 1 3  21.671560
pair_coeff 3  33 wf/cut 0.066438 6.702054 1 3  18.881176
pair_coeff 3  34 wf/cut 0.043813 6.589243 1 4  19.228158
pair_coeff 3  35 wf/cut 0.050511 6.747424 1 2  19.377402
pair_coeff 3  36 wf/cut 0.055248 6.613764 1 2  19.014561
pair_coeff 3  37 wf/cut 0.071739 6.746945 1 2  19.599613
pair_coeff 3  38 wf/cut 0.020628 6.716225 1 2  19.385138
pair_coeff 3  39 wf/cut 0.079522 7.098367 1 3  19.059221
pair_coeff 3  40 wf/cut 0.024306 6.725328 1 3  19.137679
pair_coeff 3  41 wf/cut 0.061911 6.992766 1 3  21.485123
pair_coeff 3  42 wf/cut 0.024350 6.618519 1 3  19.754981
pair_coeff 3  43 wf/cut 0.074227 6.812770 1 2  18.925227
pair_coeff 3  44 wf/cut 0.085175 6.760641 1 3  19.762282
pair_coeff 3  45 wf/cut 0.020628 6.716225 1 2  19.385138
pair_coeff 3  46 wf/cut 0.071739 6.746945 1 2  19.599613
pair_coeff 3  47 wf/cut 0.060562 7.219123 1 3  22.211098
pair_coeff 3  48 wf/cut 0.021261 6.713840 1 2  19.382853
pair_coeff 3  49 wf/cut 0.072044 6.755741 1 4  19.190447
pair_coeff 3  50 wf/cut 0.020628 6.716225 1 2  19.385138
pair_coeff 3  51 wf/cut 0.072044 6.755741 1 4  19.190447
pair_coeff 3  52 wf/cut 0.083015 6.929124 1 2  22.360523
pair_coeff 3  53 wf/cut 0.057939 6.724955 1 3  18.801532
pair_coeff 3  54 wf/cut 0.051744 6.630346 1 3  19.235238
pair_coeff 3  55 wf/cut 0.078588 6.680969 1 3  22.511694
pair_coeff 3  56 wf/cut 0.023271 6.687764 1 3  21.537982
pair_coeff 3  57 wf/cut 0.023271 6.687764 1 3  21.537982
pair_coeff 3  58 wf/cut 0.053762 6.850975 1 3  18.955099
pair_coeff 3  59 wf/cut 0.072321 6.715602 1 3  19.676336
pair_coeff 3  60 wf/cut 0.058295 6.683832 1 3  21.486991
pair_coeff 3  61 wf/cut 0.024306 6.725328 1 3  19.137679
pair_coeff 3  62 wf/cut 0.069477 6.623811 1 3  19.268322
pair_coeff 4  4  wf/cut 0.030758 5.889062 1 2  17.667185
pair_coeff 4  5  wf/cut 0.167112 6.352016 1 2  19.056047
pair_coeff 4  6  wf/cut 0.040119 5.577948 1 2  16.733843
pair_coeff 4  7  wf/cut 0.068769 5.849866 1 2  17.549599
pair_coeff 4  8  wf/cut 0.073174 6.026541 1 2  18.079624
pair_coeff 4  9  wf/cut 0.224972 6.298063 1 2  18.894189
pair_coeff 4  10 wf/cut 0.018168 6.036965 1 2  18.110896
pair_coeff 4  11 wf/cut 0.020878 6.198089 1 2  18.594267
pair_coeff 4  12 wf/cut 0.115603 6.073288 1 2  18.219864
pair_coeff 4  13 wf/cut 0.290527 6.463775 1 2  19.391326
pair_coeff 4  14 wf/cut 0.211200 6.246251 1 2  18.738753
pair_coeff 4  15 wf/cut 0.046179 5.648008 1 2  16.944023
pair_coeff 4  16 wf/cut 0.199088 6.100529 1 2  18.301586
pair_coeff 4  17 wf/cut 0.112303 5.896099 1 2  17.688298
pair_coeff 4  18 wf/cut 0.054717 5.843196 1 2  17.529588
pair_coeff 4  19 wf/cut 0.050034 5.803212 1 2  17.409635
pair_coeff 4  20 wf/cut 0.015576 6.214617 1 2  18.643851
pair_coeff 4  21 wf/cut 0.271379 7.164531 1 3  21.493592
pair_coeff 4  22 wf/cut 0.182879 7.054531 1 3  21.163592
pair_coeff 4  23 wf/cut 0.273379 7.199531 1 3  21.598592
pair_coeff 4  24 wf/cut 0.167879 7.029531 1 3  21.088592
pair_coeff 4  25 wf/cut 0.094998 6.835928 1 3  21.216477
pair_coeff 4  26 wf/cut 0.099157 6.352572 1 3  18.459465
pair_coeff 4  27 wf/cut 0.101085 6.294995 1 3  21.307867
pair_coeff 4  28 wf/cut 0.072500 6.434931 1 2  18.215999
pair_coeff 4  29 wf/cut 0.072500 6.434931 1 2  18.215999
pair_coeff 4  30 wf/cut 0.057243 6.237378 1 2  17.410443
pair_coeff 4  31 wf/cut 0.074532 6.515435 1 2  20.335980
pair_coeff 4  32 wf/cut 0.028240 6.286655 1 3  20.498142
pair_coeff 4  33 wf/cut 0.084273 6.310914 1 3  17.707757
pair_coeff 4  34 wf/cut 0.055574 6.198104 1 4  18.054739
pair_coeff 4  35 wf/cut 0.064070 6.356285 1 2  18.203983
pair_coeff 4  36 wf/cut 0.070079 6.222625 1 2  17.841143
pair_coeff 4  37 wf/cut 0.090996 6.355806 1 2  18.426194
pair_coeff 4  38 wf/cut 0.026165 6.325086 1 2  18.211720
pair_coeff 4  39 wf/cut 0.100869 6.707227 1 3  17.885802
pair_coeff 4  40 wf/cut 0.030830 6.334189 1 3  17.964261
pair_coeff 4  41 wf/cut 0.078530 6.601627 1 3  20.311705
pair_coeff 4  42 wf/cut 0.030887 6.227380 1 3  18.581563
pair_coeff 4  43 wf/cut 0.094152 6.421631 1 2  17.751808
pair_coeff 4  44 wf/cut 0.108040 6.369502 1 3  18.588863
pair_coeff 4  45 wf/cut 0.026165 6.325086 1 2  18.211720
pair_coeff 4  46 wf/cut 0.090996 6.355806 1 2  18.426194
pair_coeff 4  47 wf/cut 0.076819 6.827983 1 3  21.037680
pair_coeff 4  48 wf/cut 0.026968 6.322701 1 2  18.209435
pair_coeff 4  49 wf/cut 0.091383 6.364602 1 4  18.017029
pair_coeff 4  50 wf/cut 0.026165 6.325086 1 2  18.211720
pair_coeff 4  51 wf/cut 0.091383 6.364602 1 4  18.017029
pair_coeff 4  52 wf/cut 0.105299 6.537984 1 2  21.187104
pair_coeff 4  53 wf/cut 0.073492 6.333815 1 3  17.628113
pair_coeff 4  54 wf/cut 0.065634 6.239207 1 3  18.061820
pair_coeff 4  55 wf/cut 0.099684 6.289830 1 3  21.338275
pair_coeff 4  56 wf/cut 0.029517 6.296624 1 3  20.364563
pair_coeff 4  57 wf/cut 0.029517 6.296624 1 3  20.364563
pair_coeff 4  58 wf/cut 0.068194 6.459836 1 3  17.781680
pair_coeff 4  59 wf/cut 0.091734 6.324463 1 3  18.502917
pair_coeff 4  60 wf/cut 0.073944 6.292693 1 3  20.313573
pair_coeff 4  61 wf/cut 0.030830 6.334189 1 3  17.964261
pair_coeff 4  62 wf/cut 0.088127 6.232671 1 3  18.094903
pair_coeff 5  5  wf/cut 0.089916 6.839051 1 2  20.517153
pair_coeff 5  6  wf/cut 0.176473 6.049093 1 2  18.147279
pair_coeff 5  7  wf/cut 0.001522 6.329860 1 2  18.989581
pair_coeff 5  8  wf/cut 0.001554 6.507088 1 2  19.521264
pair_coeff 5  9  wf/cut 0.607820 6.786239 1 2  20.358716
pair_coeff 5  10 wf/cut 0.154522 6.477801 1 2  19.433402
pair_coeff 5  11 wf/cut 0.157232 6.644607 1 2  19.933820
pair_coeff 5  12 wf/cut 0.251957 6.558280 1 2  19.674840
pair_coeff 5  13 wf/cut 0.691657 6.952551 1 2  20.857653
pair_coeff 5  14 wf/cut 0.544942 6.734245 1 2  20.202735
pair_coeff 5  15 wf/cut 0.182533 6.121907 1 2  18.365722
pair_coeff 5  16 wf/cut 0.124237 6.588371 1 2  19.765114
pair_coeff 5  17 wf/cut 0.248657 6.381028 1 2  19.143083
pair_coeff 5  18 wf/cut 0.191071 6.319851 1 2  18.959553
pair_coeff 5  19 wf/cut 0.186388 6.278276 1 2  18.834827
pair_coeff 5  20 wf/cut 0.151930 6.644914 1 2  19.934743
pair_coeff 5  21 wf/cut 0.601916 7.639526 1 3  22.918577
pair_coeff 5  22 wf/cut 0.424916 7.529526 1 3  22.588577
pair_coeff 5  23 wf/cut 0.605916 7.674526 1 3  23.023577
pair_coeff 5  24 wf/cut 0.394916 7.504526 1 3  22.513577
pair_coeff 5  25 wf/cut 0.162425 7.310923 1 3  22.641461
pair_coeff 5  26 wf/cut 0.169536 6.827567 1 3  19.884449
pair_coeff 5  27 wf/cut 0.172834 6.769989 1 3  22.732851
pair_coeff 5  28 wf/cut 0.123959 6.909926 1 2  19.640983
pair_coeff 5  29 wf/cut 0.123959 6.909926 1 2  19.640983
pair_coeff 5  30 wf/cut 0.097873 6.712373 1 2  18.835428
pair_coeff 5  31 wf/cut 0.127433 6.990430 1 2  21.760964
pair_coeff 5  32 wf/cut 0.048284 6.761649 1 3  21.923126
pair_coeff 5  33 wf/cut 0.144087 6.785909 1 3  19.132741
pair_coeff 5  34 wf/cut 0.095018 6.673098 1 4  19.479723
pair_coeff 5  35 wf/cut 0.109545 6.831280 1 2  19.628967
pair_coeff 5  36 wf/cut 0.119819 6.697620 1 2  19.266127
pair_coeff 5  37 wf/cut 0.155584 6.830801 1 2  19.851178
pair_coeff 5  38 wf/cut 0.044737 6.800080 1 2  19.636704
pair_coeff 5  39 wf/cut 0.172463 7.182222 1 3  19.310787
pair_coeff 5  40 wf/cut 0.052713 6.809183 1 3  19.389245
pair_coeff 5  41 wf/cut 0.134269 7.076621 1 3  21.736689
pair_coeff 5  42 wf/cut 0.052809 6.702374 1 3  20.006547
pair_coeff 5  43 wf/cut 0.160979 6.896625 1 2  19.176793
pair_coeff 5  44 wf/cut 0.184724 6.844497 1 3  20.013847
pair_coeff 5  45 wf/cut 0.044737 6.800080 1 2  19.636704
pair_coeff 5  46 wf/cut 0.155584 6.830801 1 2  19.851178
pair_coeff 5  47 wf/cut 0.131343 7.302978 1 3  22.462664
pair_coeff 5  48 wf/cut 0.046109 6.797696 1 2  19.634419
pair_coeff 5  49 wf/cut 0.156245 6.839596 1 4  19.442013
pair_coeff 5  50 wf/cut 0.044737 6.800080 1 2  19.636704
pair_coeff 5  51 wf/cut 0.156245 6.839596 1 4  19.442013
pair_coeff 5  52 wf/cut 0.180038 7.012979 1 2  22.612088
pair_coeff 5  53 wf/cut 0.125655 6.808810 1 3  19.053098
pair_coeff 5  54 wf/cut 0.112219 6.714202 1 3  19.486804
pair_coeff 5  55 wf/cut 0.170438 6.764825 1 3  22.763259
pair_coeff 5  56 wf/cut 0.050468 6.771619 1 3  21.789548
pair_coeff 5  57 wf/cut 0.050468 6.771619 1 3  21.789548
pair_coeff 5  58 wf/cut 0.116596 6.934831 1 3  19.206665
pair_coeff 5  59 wf/cut 0.156845 6.799457 1 3  19.927901
pair_coeff 5  60 wf/cut 0.126427 6.767687 1 3  21.738557
pair_coeff 5  61 wf/cut 0.052713 6.809183 1 3  19.389245
pair_coeff 5  62 wf/cut 0.150678 6.707666 1 3  19.519888
pair_coeff 6  6  wf/cut 0.049480 5.270074 1 2  15.810221
pair_coeff 6  7  wf/cut 0.078130 5.545104 1 2  16.635312
pair_coeff 6  8  wf/cut 0.082535 5.721983 1 2  17.165950
pair_coeff 6  9  wf/cut 0.234333 5.995375 1 2  17.986125
pair_coeff 6  10 wf/cut 0.027529 5.714673 1 2  17.144019
pair_coeff 6  11 wf/cut 0.030239 5.879183 1 2  17.637550
pair_coeff 6  12 wf/cut 0.124964 5.769878 1 2  17.309635
pair_coeff 6  13 wf/cut 0.299889 6.161220 1 2  18.483659
pair_coeff 6  14 wf/cut 0.220561 5.943524 1 2  17.830573
pair_coeff 6  15 wf/cut 0.055540 5.341187 1 2  16.023560
pair_coeff 6  16 wf/cut 0.208449 5.797766 1 2  17.393298
pair_coeff 6  17 wf/cut 0.121665 5.592677 1 2  16.778030
pair_coeff 6  18 wf/cut 0.064078 5.537384 1 2  16.612152
pair_coeff 6  19 wf/cut 0.059395 5.496868 1 2  16.490603
pair_coeff 6  20 wf/cut 0.024937 5.887264 1 2  17.661792
pair_coeff 6  21 wf/cut 0.280740 6.855037 1 3  20.565110
pair_coeff 6  22 wf/cut 0.192240 6.745037 1 3  20.235110
pair_coeff 6  23 wf/cut 0.282740 6.890037 1 3  20.670110
pair_coeff 6  24 wf/cut 0.177240 6.720037 1 3  20.160110
pair_coeff 6  25 wf/cut 0.120489 6.526434 1 3  20.287995
pair_coeff 6  26 wf/cut 0.125765 6.043078 1 3  17.530983
pair_coeff 6  27 wf/cut 0.128211 5.985501 1 3  20.379385
pair_coeff 6  28 wf/cut 0.091955 6.125437 1 2  17.287517
pair_coeff 6  29 wf/cut 0.091955 6.125437 1 2  17.287517
pair_coeff 6  30 wf/cut 0.072604 5.927884 1 2  16.481961
pair_coeff 6  31 wf/cut 0.094532 6.205941 1 2  19.407498
pair_coeff 6  32 wf/cut 0.035818 5.977161 1 3  19.569660
pair_coeff 6  33 wf/cut 0.106886 6.001420 1 3  16.779275
pair_coeff 6  34 wf/cut 0.070486 5.888610 1 4  17.126257
pair_coeff 6  35 wf/cut 0.081262 6.046791 1 2  17.275501
pair_coeff 6  36 wf/cut 0.088884 5.913131 1 2  16.912661
pair_coeff 6  37 wf/cut 0.115414 6.046312 1 2  17.497712
pair_coeff 6  38 wf/cut 0.033186 6.015592 1 2  17.283238
pair_coeff 6  39 wf/cut 0.127936 6.397733 1 3  16.957320
pair_coeff 6  40 wf/cut 0.039103 6.024695 1 3  17.035779
pair_coeff 6  41 wf/cut 0.099603 6.292133 1 3  19.383223
pair_coeff 6  42 wf/cut 0.039175 5.917886 1 3  17.653080
pair_coeff 6  43 wf/cut 0.119417 6.112136 1 2  16.823326
pair_coeff 6  44 wf/cut 0.137031 6.060008 1 3  17.660381
pair_coeff 6  45 wf/cut 0.033186 6.015592 1 2  17.283238
pair_coeff 6  46 wf/cut 0.115414 6.046312 1 2  17.497712
pair_coeff 6  47 wf/cut 0.097432 6.518489 1 3  20.109198
pair_coeff 6  48 wf/cut 0.034204 6.013207 1 2  17.280953
pair_coeff 6  49 wf/cut 0.115905 6.055108 1 4  17.088547
pair_coeff 6  50 wf/cut 0.033186 6.015592 1 2  17.283238
pair_coeff 6  51 wf/cut 0.115905 6.055108 1 4  17.088547
pair_coeff 6  52 wf/cut 0.133555 6.228490 1 2  20.258622
pair_coeff 6  53 wf/cut 0.093213 6.024321 1 3  16.699631
pair_coeff 6  54 wf/cut 0.083246 5.929713 1 3  17.133338
pair_coeff 6  55 wf/cut 0.126434 5.980336 1 3  20.409793
pair_coeff 6  56 wf/cut 0.037438 5.987130 1 3  19.436081
pair_coeff 6  57 wf/cut 0.037438 5.987130 1 3  19.436081
pair_coeff 6  58 wf/cut 0.086493 6.150342 1 3  16.853198
pair_coeff 6  59 wf/cut 0.116350 6.014969 1 3  17.574435
pair_coeff 6  60 wf/cut 0.093786 5.983199 1 3  19.385091
pair_coeff 6  61 wf/cut 0.039103 6.024695 1 3  17.035779
pair_coeff 6  62 wf/cut 0.111775 5.923177 1 3  17.166421
pair_coeff 7  7  wf/cut 0.079096 5.823522 1 2  17.470565
pair_coeff 7  8  wf/cut 0.082359 6.000582 1 2  18.001747
pair_coeff 7  9  wf/cut 0.262983 6.276474 1 2  18.829421
pair_coeff 7  10 wf/cut 0.056178 5.978735 1 2  17.936206
pair_coeff 7  11 wf/cut 0.058888 6.145089 1 2  18.435268
pair_coeff 7  12 wf/cut 0.153614 6.050040 1 2  18.150121
pair_coeff 7  13 wf/cut 0.328538 6.442440 1 2  19.327321
pair_coeff 7  14 wf/cut 0.249211 6.224557 1 2  18.673672
pair_coeff 7  15 wf/cut 0.084189 5.617299 1 2  16.851896
pair_coeff 7  16 wf/cut 0.001758 6.078759 1 2  18.236278
pair_coeff 7  17 wf/cut 0.150314 5.872796 1 2  17.618389
pair_coeff 7  18 wf/cut 0.092728 5.814546 1 2  17.443637
pair_coeff 7  19 wf/cut 0.088045 5.773404 1 2  17.320213
pair_coeff 7  20 wf/cut 0.053587 6.146988 1 2  18.440965
pair_coeff 7  21 wf/cut 0.295548 7.131761 1 3  21.395283
pair_coeff 7  22 wf/cut 0.207048 7.021761 1 3  21.065283
pair_coeff 7  23 wf/cut 0.297548 7.166761 1 3  21.500283
pair_coeff 7  24 wf/cut 0.192048 6.996761 1 3  20.990283
pair_coeff 7  25 wf/cut 0.152339 6.803158 1 3  21.118168
pair_coeff 7  26 wf/cut 0.159009 6.319802 1 3  18.361155
pair_coeff 7  27 wf/cut 0.162101 6.262225 1 3  21.209557
pair_coeff 7  28 wf/cut 0.116262 6.402161 1 2  18.117689
pair_coeff 7  29 wf/cut 0.116262 6.402161 1 2  18.117689
pair_coeff 7  30 wf/cut 0.091796 6.204608 1 2  17.312134
pair_coeff 7  31 wf/cut 0.119520 6.482665 1 2  20.237670
pair_coeff 7  32 wf/cut 0.045286 6.253885 1 3  20.399832
pair_coeff 7  33 wf/cut 0.135140 6.278144 1 3  17.609448
pair_coeff 7  34 wf/cut 0.089118 6.165334 1 4  17.956430
pair_coeff 7  35 wf/cut 0.102742 6.323515 1 2  18.105673
pair_coeff 7  36 wf/cut 0.112379 6.189855 1 2  17.742833
pair_coeff 7  37 wf/cut 0.145923 6.323036 1 2  18.327884
pair_coeff 7  38 wf/cut 0.041959 6.292316 1 2  18.113410
pair_coeff 7  39 wf/cut 0.161754 6.674458 1 3  17.787493
pair_coeff 7  40 wf/cut 0.049440 6.301419 1 3  17.865951
pair_coeff 7  41 wf/cut 0.125932 6.568857 1 3  20.213395
pair_coeff 7  42 wf/cut 0.049530 6.194610 1 3  18.483253
pair_coeff 7  43 wf/cut 0.150983 6.388861 1 2  17.653499
pair_coeff 7  44 wf/cut 0.173253 6.336732 1 3  18.490553
pair_coeff 7  45 wf/cut 0.041959 6.292316 1 2  18.113410
pair_coeff 7  46 wf/cut 0.145923 6.323036 1 2  18.327884
pair_coeff 7  47 wf/cut 0.123187 6.795213 1 3  20.939370
pair_coeff 7  48 wf/cut 0.043246 6.289931 1 2  18.111125
pair_coeff 7  49 wf/cut 0.146543 6.331832 1 4  17.918719
pair_coeff 7  50 wf/cut 0.041959 6.292316 1 2  18.113410
pair_coeff 7  51 wf/cut 0.146543 6.331832 1 4  17.918719
pair_coeff 7  52 wf/cut 0.168858 6.505214 1 2  21.088794
pair_coeff 7  53 wf/cut 0.117852 6.301045 1 3  17.529804
pair_coeff 7  54 wf/cut 0.105251 6.206437 1 3  17.963510
pair_coeff 7  55 wf/cut 0.159855 6.257060 1 3  21.239965
pair_coeff 7  56 wf/cut 0.047334 6.263854 1 3  20.266254
pair_coeff 7  57 wf/cut 0.047334 6.263854 1 3  20.266254
pair_coeff 7  58 wf/cut 0.109356 6.427066 1 3  17.683371
pair_coeff 7  59 wf/cut 0.147105 6.291693 1 3  18.404607
pair_coeff 7  60 wf/cut 0.118577 6.259923 1 3  20.215263
pair_coeff 7  61 wf/cut 0.049440 6.301419 1 3  17.865951
pair_coeff 7  62 wf/cut 0.141321 6.199902 1 3  17.996594
pair_coeff 8  8  wf/cut 0.085622 6.177670 1 2  18.533011
pair_coeff 8  9  wf/cut 0.267388 6.453698 1 2  19.361095
pair_coeff 8  10 wf/cut 0.060583 6.155039 1 2  18.465116
pair_coeff 8  11 wf/cut 0.063293 6.321457 1 2  18.964372
pair_coeff 8  12 wf/cut 0.158019 6.227214 1 2  18.681642
pair_coeff 8  13 wf/cut 0.332943 6.619692 1 2  19.859075
pair_coeff 8  14 wf/cut 0.253616 6.401799 1 2  19.205397
pair_coeff 8  15 wf/cut 0.088594 5.794220 1 2  17.382659
pair_coeff 8  16 wf/cut 0.001791 6.256001 1 2  18.768002
pair_coeff 8  17 wf/cut 0.154719 6.049989 1 2  18.149967
pair_coeff 8  18 wf/cut 0.097133 5.991525 1 2  17.974575
pair_coeff 8  19 wf/cut 0.092450 5.950365 1 2  17.851094
pair_coeff 8  20 wf/cut 0.057992 6.323326 1 2  18.969977
pair_coeff 8  21 wf/cut 0.298811 7.308835 1 3  21.926505
pair_coeff 8  22 wf/cut 0.210311 7.198835 1 3  21.596505
pair_coeff 8  23 wf/cut 0.300811 7.343835 1 3  22.031505
pair_coeff 8  24 wf/cut 0.195311 7.173835 1 3  21.521505
pair_coeff 8  25 wf/cut 0.158499 6.980232 1 3  21.649390
pair_coeff 8  26 wf/cut 0.165438 6.496876 1 3  18.892378
pair_coeff 8  27 wf/cut 0.168656 6.439299 1 3  21.740780
pair_coeff 8  28 wf/cut 0.120963 6.579235 1 2  18.648912
pair_coeff 8  29 wf/cut 0.120963 6.579235 1 2  18.648912
pair_coeff 8  30 wf/cut 0.095508 6.381683 1 2  17.843357
pair_coeff 8  31 wf/cut 0.124353 6.659739 1 2  20.768893
pair_coeff 8  32 wf/cut 0.047117 6.430959 1 3  20.931055
pair_coeff 8  33 wf/cut 0.140605 6.455219 1 3  18.140670
pair_coeff 8  34 wf/cut 0.092722 6.342408 1 4  18.487652
pair_coeff 8  35 wf/cut 0.106897 6.500589 1 2  18.636896
pair_coeff 8  36 wf/cut 0.116923 6.366929 1 2  18.274056
pair_coeff 8  37 wf/cut 0.151823 6.500110 1 2  18.859107
pair_coeff 8  38 wf/cut 0.043655 6.469390 1 2  18.644633
pair_coeff 8  39 wf/cut 0.168294 6.851532 1 3  18.318715
pair_coeff 8  40 wf/cut 0.051439 6.478493 1 3  18.397174
pair_coeff 8  41 wf/cut 0.131024 6.745931 1 3  20.744618
pair_coeff 8  42 wf/cut 0.051533 6.371684 1 3  19.014476
pair_coeff 8  43 wf/cut 0.157088 6.565935 1 2  18.184721
pair_coeff 8  44 wf/cut 0.180259 6.513806 1 3  19.021776
pair_coeff 8  45 wf/cut 0.043655 6.469390 1 2  18.644633
pair_coeff 8  46 wf/cut 0.151823 6.500110 1 2  18.859107
pair_coeff 8  47 wf/cut 0.128168 6.972288 1 3  21.470593
pair_coeff 8  48 wf/cut 0.044994 6.467005 1 2  18.642348
pair_coeff 8  49 wf/cut 0.152469 6.508906 1 4  18.449942
pair_coeff 8  50 wf/cut 0.043655 6.469390 1 2  18.644633
pair_coeff 8  51 wf/cut 0.152469 6.508906 1 4  18.449942
pair_coeff 8  52 wf/cut 0.175686 6.682289 1 2  21.620017
pair_coeff 8  53 wf/cut 0.122617 6.478119 1 3  18.061027
pair_coeff 8  54 wf/cut 0.109507 6.383511 1 3  18.494733
pair_coeff 8  55 wf/cut 0.166319 6.434134 1 3  21.771188
pair_coeff 8  56 wf/cut 0.049248 6.440928 1 3  20.797476
pair_coeff 8  57 wf/cut 0.049248 6.440928 1 3  20.797476
pair_coeff 8  58 wf/cut 0.113778 6.604140 1 3  18.214594
pair_coeff 8  59 wf/cut 0.153054 6.468767 1 3  18.935830
pair_coeff 8  60 wf/cut 0.123372 6.436997 1 3  20.746486
pair_coeff 8  61 wf/cut 0.051439 6.478493 1 3  18.397174
pair_coeff 8  62 wf/cut 0.147036 6.376976 1 3  18.527817
pair_coeff 9  9  wf/cut 0.419186 6.733634 1 2  20.200902
pair_coeff 9  10 wf/cut 0.212382 6.423549 1 2  19.270647
pair_coeff 9  11 wf/cut 0.215092 6.590388 1 2  19.771164
pair_coeff 9  12 wf/cut 0.309817 6.505249 1 2  19.515747
pair_coeff 9  13 wf/cut 0.484741 6.900050 1 2  20.700151
pair_coeff 9  14 wf/cut 0.405414 6.681589 1 2  20.044767
pair_coeff 9  15 wf/cut 0.240393 6.068281 1 2  18.204842
pair_coeff 9  16 wf/cut 0.393302 6.535691 1 2  19.607074
pair_coeff 9  17 wf/cut 0.306517 6.327983 1 2  18.983948
pair_coeff 9  18 wf/cut 0.248931 6.266295 1 2  18.798886
pair_coeff 9  19 wf/cut 0.244248 6.224651 1 2  18.673952
pair_coeff 9  20 wf/cut 0.209790 6.590551 1 2  19.771652
pair_coeff 9  21 wf/cut 0.465593 7.586817 1 3  22.760451
pair_coeff 9  22 wf/cut 0.377093 7.476817 1 3  22.430451
pair_coeff 9  23 wf/cut 0.467593 7.621817 1 3  22.865451
pair_coeff 9  24 wf/cut 0.362093 7.451817 1 3  22.355451
pair_coeff 9  25 wf/cut 0.350701 7.258214 1 3  22.483336
pair_coeff 9  26 wf/cut 0.366055 6.774858 1 3  19.726324
pair_coeff 9  27 wf/cut 0.373175 6.717281 1 3  22.574726
pair_coeff 9  28 wf/cut 0.267648 6.857217 1 2  19.482858
pair_coeff 9  29 wf/cut 0.267648 6.857217 1 2  19.482858
pair_coeff 9  30 wf/cut 0.211324 6.659664 1 2  18.677302
pair_coeff 9  31 wf/cut 0.275148 6.937721 1 2  21.602839
pair_coeff 9  32 wf/cut 0.104254 6.708941 1 3  21.765000
pair_coeff 9  33 wf/cut 0.311108 6.733200 1 3  18.974616
pair_coeff 9  34 wf/cut 0.205160 6.620390 1 4  19.321598
pair_coeff 9  35 wf/cut 0.236524 6.778571 1 2  19.470842
pair_coeff 9  36 wf/cut 0.258708 6.644911 1 2  19.108002
pair_coeff 9  37 wf/cut 0.335930 6.778092 1 2  19.693053
pair_coeff 9  38 wf/cut 0.096593 6.747372 1 2  19.478579
pair_coeff 9  39 wf/cut 0.372375 7.129514 1 3  19.152661
pair_coeff 9  40 wf/cut 0.113816 6.756475 1 3  19.231119
pair_coeff 9  41 wf/cut 0.289909 7.023913 1 3  21.578564
pair_coeff 9  42 wf/cut 0.114024 6.649666 1 3  19.848421
pair_coeff 9  43 wf/cut 0.347580 6.843917 1 2  19.018667
pair_coeff 9  44 wf/cut 0.398848 6.791788 1 3  19.855722
pair_coeff 9  45 wf/cut 0.096593 6.747372 1 2  19.478579
pair_coeff 9  46 wf/cut 0.335930 6.778092 1 2  19.693053