# MPiPi Settings File

# Charges
set type 3   charge 0.750000
set type 5   charge 0.750000
set type 7   charge -0.750000
set type 8   charge -0.750000
set type 16  charge 0.375000
set type 21  charge -0.750000
set type 22  charge -0.750000
set type 23  charge -0.750000
set type 24  charge -0.750000
set type 25  charge -0.082000
set type 26  charge -0.162000
set type 27  charge -0.158000
set type 28  charge 0.096000
set type 29  charge -0.162000
set type 30  charge -0.162000
set type 31  charge -0.090000
set type 32  charge 0.249000
set type 33  charge 0.007000
set type 34  charge -0.169000
set type 35  charge 0.104000
set type 36  charge 0.089000
set type 37  charge -0.082000
set type 38  charge -0.221000
set type 39  charge -0.162000
set type 40  charge 0.051000
set type 41  charge -0.166000
set type 42  charge 0.049000
set type 43  charge -0.018000
set type 44  charge 0.129000
set type 45  charge 0.089000
set type 46  charge 0.104000
set type 47  charge 0.024000
set type 48  charge 0.148000
set type 49  charge 0.264000
set type 50  charge 0.089000
set type 51  charge 0.264000
set type 52  charge -0.162000
set type 53  charge -0.069000
set type 54  charge -0.101000
set type 55  charge -0.221000
set type 56  charge -0.101000
set type 57  charge -0.004000
set type 58  charge -0.095000
set type 59  charge -0.139000
set type 60  charge 0.007000

# Bonds
bond_coeff 1   9.600000 3.810000
bond_coeff 2   9.600000 5.000000
bond_coeff 3   9.600000 2.947000
bond_coeff 4   9.600000 3.076000
bond_coeff 5   9.600000 4.066000
bond_coeff 6   9.600000 2.633000
bond_coeff 7   9.600000 3.017000
bond_coeff 8   9.600000 5.309000
bond_coeff 9   9.600000 3.453000
bond_coeff 10  9.600000 3.773000
bond_coeff 11  9.600000 3.560000
bond_coeff 12  9.600000 4.963000
bond_coeff 13  9.600000 5.067000
bond_coeff 14  9.600000 4.494000
bond_coeff 15  9.600000 4.395000
bond_coeff 16  9.600000 3.084000
bond_coeff 17  9.600000 6.570000
bond_coeff 18  9.600000 6.217000
bond_coeff 19  9.600000 6.225000
bond_coeff 20  9.600000 2.964000
bond_coeff 21  9.600000 7.009000
bond_coeff 22  9.600000 7.024000
bond_coeff 23  9.600000 4.524000
bond_coeff 24  9.600000 4.523000
bond_coeff 25  9.600000 6.535000
bond_coeff 26  9.600000 5.325000
bond_coeff 27  9.600000 4.598000
bond_coeff 28  9.600000 6.017000

# Pair Style
pair_style  hybrid/overlay wf/cut 25.0 coul/debye 0.126 0.0

# Pairwise Interactions
pair_coeff 1  1  wf/cut 0.039564 6.467951 1 2  19.403853
pair_coeff 1  2  wf/cut 0.068017 5.576178 1 2  16.728535
pair_coeff 1  3  wf/cut 0.032686 6.567784 1 2  19.703351
pair_coeff 1  4  wf/cut 0.035161 6.178228 1 2  18.534684
pair_coeff 1  5  wf/cut 0.171515 6.643965 1 2  19.931895
pair_coeff 1  6  wf/cut 0.044522 5.868502 1 2  17.605506
pair_coeff 1  7  wf/cut 0.073172 6.141460 1 2  18.424379
pair_coeff 1  8  wf/cut 0.077577 6.318177 1 2  18.954530
pair_coeff 1  9  wf/cut 0.229375 6.590037 1 2  19.770112
pair_coeff 1  10 wf/cut 0.022571 6.320572 1 2  18.961715
pair_coeff 1  11 wf/cut 0.025281 6.483444 1 2  19.450331
pair_coeff 1  12 wf/cut 0.120006 6.365188 1 2  19.095564
pair_coeff 1  13 wf/cut 0.294931 6.755728 1 2  20.267185
pair_coeff 1  14 wf/cut 0.215603 6.538209 1 2  19.614626
pair_coeff 1  15 wf/cut 0.050582 5.938941 1 2  17.816822
pair_coeff 1  16 wf/cut 0.203491 6.392507 1 2  19.177522
pair_coeff 1  17 wf/cut 0.116706 6.188018 1 2  18.564055
pair_coeff 1  18 wf/cut 0.059120 6.134464 1 2  18.403392
pair_coeff 1  19 wf/cut 0.054437 6.094295 1 2  18.282884
pair_coeff 1  20 wf/cut 0.019979 6.496393 1 2  19.489179
pair_coeff 1  21 wf/cut 0.275782 7.453975 1 3  22.361926
pair_coeff 1  22 wf/cut 0.187282 7.343975 1 3  22.031926
pair_coeff 1  23 wf/cut 0.277782 7.488975 1 3  22.466926
pair_coeff 1  24 wf/cut 0.172282 7.318975 1 3  21.956926
pair_coeff 1  25 wf/cut 0.056006 6.310699 1 4  20.539092
pair_coeff 1  26 wf/cut 0.109231 6.240080 1 4  19.981293
pair_coeff 1  27 wf/cut 0.055357 6.511466 1 2  19.485803
pair_coeff 1  28 wf/cut 0.048141 6.353722 1 4  20.071514
pair_coeff 1  29 wf/cut 0.109428 6.264713 1 4  19.586680
pair_coeff 1  30 wf/cut 0.055972 6.214395 1 2  19.383000
pair_coeff 1  31 wf/cut 0.049096 6.313589 1 4  20.664615
pair_coeff 1  32 wf/cut 0.033302 6.344455 1 2  20.123205
pair_coeff 1  33 wf/cut 0.044438 6.482363 1 4  20.152775
pair_coeff 1  34 wf/cut 0.084164 6.222775 1 2  19.928364
pair_coeff 1  35 wf/cut 0.053838 6.214382 1 2  19.857390
pair_coeff 1  36 wf/cut 0.032392 6.198568 1 2  19.531888
pair_coeff 1  37 wf/cut 0.055495 6.201929 1 2  20.260598
pair_coeff 1  38 wf/cut 0.107619 6.975403 1 4  20.783511
pair_coeff 1  39 wf/cut 0.109428 6.264713 1 4  19.586680
pair_coeff 1  40 wf/cut 0.042292 6.427935 1 4  20.035239
pair_coeff 1  41 wf/cut 0.051180 6.144451 1 2  19.129457
pair_coeff 1  42 wf/cut 0.031843 6.338214 1 2  19.495069
pair_coeff 1  43 wf/cut 0.054977 6.292337 1 4  19.576046
pair_coeff 1  44 wf/cut 0.034725 6.335137 1 2  20.008581
pair_coeff 1  45 wf/cut 0.032392 6.198568 1 2  19.531888
pair_coeff 1  46 wf/cut 0.053838 6.214382 1 2  19.857390
pair_coeff 1  47 wf/cut 0.117595 6.220698 1 2  19.821025
pair_coeff 1  48 wf/cut 0.061109 6.200218 1 2  20.022775
pair_coeff 1  49 wf/cut 0.054299 6.231273 1 4  20.126128
pair_coeff 1  50 wf/cut 0.032392 6.198568 1 2  19.531888
pair_coeff 1  51 wf/cut 0.054299 6.231273 1 4  20.126128
pair_coeff 1  52 wf/cut 0.055972 6.214395 1 2  19.383000
pair_coeff 1  53 wf/cut 0.059034 6.294395 1 4  20.523031
pair_coeff 1  54 wf/cut 0.108029 6.298958 1 4  19.821087
pair_coeff 1  55 wf/cut 0.109428 6.284245 1 4  20.130125
pair_coeff 1  56 wf/cut 0.108029 6.298958 1 4  19.821087
pair_coeff 1  57 wf/cut 0.055618 6.290826 1 4  20.310622
pair_coeff 1  58 wf/cut 0.046367 6.310852 1 4  20.481597
pair_coeff 1  59 wf/cut 0.077612 6.850728 1 4  20.165576
pair_coeff 1  60 wf/cut 0.044438 6.482363 1 4  20.152775
pair_coeff 2  2  wf/cut 0.096470 4.695110 1 2  14.085331
pair_coeff 2  3  wf/cut 0.061139 5.671338 1 2  17.014015
pair_coeff 2  4  wf/cut 0.063614 5.284425 1 2  15.853275
pair_coeff 2  5  wf/cut 0.199968 5.766386 1 2  17.299159
pair_coeff 2  6  wf/cut 0.072975 4.980135 1 2  14.940404
pair_coeff 2  7  wf/cut 0.101625 5.259255 1 2  15.777764
pair_coeff 2  8  wf/cut 0.106030 5.436375 1 2  16.309124
pair_coeff 2  9  wf/cut 0.257828 5.713165 1 2  17.139496
pair_coeff 2  10 wf/cut 0.051024 5.412393 1 2  16.237180
pair_coeff 2  11 wf/cut 0.053734 5.578930 1 2  16.736791
pair_coeff 2  12 wf/cut 0.148459 5.486299 1 2  16.458898
pair_coeff 2  13 wf/cut 0.323384 5.879238 1 2  17.637714
pair_coeff 2  14 wf/cut 0.244056 5.661219 1 2  16.983656
pair_coeff 2  15 wf/cut 0.079035 5.052525 1 2  15.157574
pair_coeff 2  16 wf/cut 0.231944 5.515412 1 2  16.546235
pair_coeff 2  17 wf/cut 0.145159 5.309016 1 2  15.927049
pair_coeff 2  18 wf/cut 0.087573 5.249991 1 2  15.749972
pair_coeff 2  19 wf/cut 0.082890 5.208723 1 2  15.626168
pair_coeff 2  20 wf/cut 0.048432 5.580329 1 2  16.740988
pair_coeff 2  21 wf/cut 0.304235 6.567555 1 3  19.702665
pair_coeff 2  22 wf/cut 0.215735 6.457555 1 3  19.372665
pair_coeff 2  23 wf/cut 0.306235 6.602555 1 3  19.807665
pair_coeff 2  24 wf/cut 0.200735 6.432555 1 3  19.297665
pair_coeff 2  25 wf/cut 0.087455 5.424279 1 4  17.879831
pair_coeff 2  26 wf/cut 0.170565 5.353660 1 4  17.322032
pair_coeff 2  27 wf/cut 0.086441 5.625046 1 2  16.826542
pair_coeff 2  28 wf/cut 0.075173 5.467302 1 4  17.412253
pair_coeff 2  29 wf/cut 0.170874 5.378293 1 4  16.927419
pair_coeff 2  30 wf/cut 0.087401 5.327975 1 2  16.723739
pair_coeff 2  31 wf/cut 0.076665 5.427168 1 4  18.005354
pair_coeff 2  32 wf/cut 0.052001 5.458035 1 2  17.463944
pair_coeff 2  33 wf/cut 0.069391 5.595942 1 4  17.493514
pair_coeff 2  34 wf/cut 0.131423 5.336355 1 2  17.269103
pair_coeff 2  35 wf/cut 0.084069 5.327961 1 2  17.198129
pair_coeff 2  36 wf/cut 0.050580 5.312148 1 2  16.872627
pair_coeff 2  37 wf/cut 0.086657 5.315509 1 2  17.601337
pair_coeff 2  38 wf/cut 0.168048 6.088983 1 4  18.124250
pair_coeff 2  39 wf/cut 0.170874 5.378293 1 4  16.927419
pair_coeff 2  40 wf/cut 0.066040 5.541514 1 4  17.375978
pair_coeff 2  41 wf/cut 0.079918 5.258030 1 2  16.470196
pair_coeff 2  42 wf/cut 0.049724 5.451793 1 2  16.835808
pair_coeff 2  43 wf/cut 0.085848 5.405916 1 4  16.916785
pair_coeff 2  44 wf/cut 0.054224 5.448717 1 2  17.349320
pair_coeff 2  45 wf/cut 0.050580 5.312148 1 2  16.872627
pair_coeff 2  46 wf/cut 0.084069 5.327961 1 2  17.198129
pair_coeff 2  47 wf/cut 0.183627 5.334278 1 2  17.161764
pair_coeff 2  48 wf/cut 0.095423 5.313798 1 2  17.363514
pair_coeff 2  49 wf/cut 0.084788 5.344852 1 4  17.466867
pair_coeff 2  50 wf/cut 0.050580 5.312148 1 2  16.872627
pair_coeff 2  51 wf/cut 0.084788 5.344852 1 4  17.466867
pair_coeff 2  52 wf/cut 0.087401 5.327975 1 2  16.723739
pair_coeff 2  53 wf/cut 0.092183 5.407974 1 4  17.863770
pair_coeff 2  54 wf/cut 0.168689 5.412537 1 4  17.161826
pair_coeff 2  55 wf/cut 0.170874 5.397825 1 4  17.470864
pair_coeff 2  56 wf/cut 0.168689 5.412537 1 4  17.161826
pair_coeff 2  57 wf/cut 0.086848 5.404406 1 4  17.651361
pair_coeff 2  58 wf/cut 0.072402 5.424431 1 4  17.822336
pair_coeff 2  59 wf/cut 0.121193 5.964308 1 4  17.506315
pair_coeff 2  60 wf/cut 0.069391 5.595942 1 4  17.493514
pair_coeff 3  3  wf/cut 0.019117 6.671341 1 2  20.014022
pair_coeff 3  4  wf/cut 0.028283 6.279400 1 2  18.838200
pair_coeff 3  5  wf/cut 0.121938 6.738192 1 2  20.214576
pair_coeff 3  6  wf/cut 0.037644 5.966686 1 2  17.900059
pair_coeff 3  7  wf/cut 0.000493 6.236987 1 2  18.710962
pair_coeff 3  8  wf/cut 0.000526 6.413575 1 2  19.240725
pair_coeff 3  9  wf/cut 0.102701 6.684083 1 2  20.052250
pair_coeff 3  10 wf/cut 0.015693 6.433541 1 2  19.300623
pair_coeff 3  11 wf/cut 0.018403 6.592558 1 2  19.777673
pair_coeff 3  12 wf/cut 0.113128 6.459694 1 2  19.379081
pair_coeff 3  13 wf/cut 0.104796 6.849685 1 2  20.549056
pair_coeff 3  14 wf/cut 0.115276 6.632280 1 2  19.896841
pair_coeff 3  15 wf/cut 0.043704 6.036180 1 2  18.108539
pair_coeff 3  16 wf/cut 0.087370 6.486603 1 2  19.459809
pair_coeff 3  17 wf/cut 0.109828 6.282546 1 2  18.847638
pair_coeff 3  18 wf/cut 0.052242 6.231062 1 2  18.693185
pair_coeff 3  19 wf/cut 0.047559 6.191154 1 2  18.573461
pair_coeff 3  20 wf/cut 0.013101 6.617996 1 2  19.853989
pair_coeff 3  21 wf/cut 0.159335 7.555670 1 3  22.667011
pair_coeff 3  22 wf/cut 0.106235 7.445670 1 3  22.337011
pair_coeff 3  23 wf/cut 0.160535 7.590670 1 3  22.772011
pair_coeff 3  24 wf/cut 0.097235 7.420670 1 3  22.262011
pair_coeff 3  25 wf/cut 0.038931 6.412394 1 4  20.844176
pair_coeff 3  26 wf/cut 0.075928 6.341775 1 4  20.286377
pair_coeff 3  27 wf/cut 0.038480 6.613161 1 2  19.790887
pair_coeff 3  28 wf/cut 0.033464 6.455417 1 4  20.376599
pair_coeff 3  29 wf/cut 0.076066 6.366408 1 4  19.891765
pair_coeff 3  30 wf/cut 0.038907 6.316090 1 2  19.688084
pair_coeff 3  31 wf/cut 0.034128 6.415284 1 4  20.969700
pair_coeff 3  32 wf/cut 0.023149 6.446150 1 2  20.428289
pair_coeff 3  33 wf/cut 0.030890 6.584057 1 4  20.457860
pair_coeff 3  34 wf/cut 0.058504 6.324470 1 2  20.233448
pair_coeff 3  35 wf/cut 0.037424 6.316077 1 2  20.162475
pair_coeff 3  36 wf/cut 0.022516 6.300263 1 2  19.836973
pair_coeff 3  37 wf/cut 0.038576 6.303624 1 2  20.565682
pair_coeff 3  38 wf/cut 0.074808 7.077098 1 4  21.088596
pair_coeff 3  39 wf/cut 0.076066 6.366408 1 4  19.891765
pair_coeff 3  40 wf/cut 0.029398 6.529629 1 4  20.340323
pair_coeff 3  41 wf/cut 0.035576 6.246145 1 2  19.434542
pair_coeff 3  42 wf/cut 0.022135 6.439909 1 2  19.800153
pair_coeff 3  43 wf/cut 0.038216 6.394031 1 4  19.881131
pair_coeff 3  44 wf/cut 0.024138 6.436832 1 2  20.313665
pair_coeff 3  45 wf/cut 0.022516 6.300263 1 2  19.836973
pair_coeff 3  46 wf/cut 0.037424 6.316077 1 2  20.162475
pair_coeff 3  47 wf/cut 0.081743 6.322393 1 2  20.126110
pair_coeff 3  48 wf/cut 0.042478 6.301913 1 2  20.327860
pair_coeff 3  49 wf/cut 0.037744 6.332968 1 4  20.431213
pair_coeff 3  50 wf/cut 0.022516 6.300263 1 2  19.836973
pair_coeff 3  51 wf/cut 0.037744 6.332968 1 4  20.431213
pair_coeff 3  52 wf/cut 0.038907 6.316090 1 2  19.688084
pair_coeff 3  53 wf/cut 0.041036 6.396089 1 4  20.828115
pair_coeff 3  54 wf/cut 0.075093 6.400652 1 4  20.126172
pair_coeff 3  55 wf/cut 0.076066 6.385940 1 4  20.435210
pair_coeff 3  56 wf/cut 0.075093 6.400652 1 4  20.126172
pair_coeff 3  57 wf/cut 0.038661 6.392521 1 4  20.615707
pair_coeff 3  58 wf/cut 0.032230 6.412546 1 4  20.786682
pair_coeff 3  59 wf/cut 0.053950 6.952423 1 4  20.470661
pair_coeff 3  60 wf/cut 0.030890 6.584057 1 4  20.457860
pair_coeff 4  4  wf/cut 0.030758 5.889062 1 2  17.667185
pair_coeff 4  5  wf/cut 0.167112 6.352016 1 2  19.056047
pair_coeff 4  6  wf/cut 0.040119 5.577948 1 2  16.733843
pair_coeff 4  7  wf/cut 0.068769 5.849866 1 2  17.549599
pair_coeff 4  8  wf/cut 0.073174 6.026541 1 2  18.079624
pair_coeff 4  9  wf/cut 0.224972 6.298063 1 2  18.894189
pair_coeff 4  10 wf/cut 0.018168 6.036965 1 2  18.110896
pair_coeff 4  11 wf/cut 0.020878 6.198089 1 2  18.594267
pair_coeff 4  12 wf/cut 0.115603 6.073288 1 2  18.219864
pair_coeff 4  13 wf/cut 0.290527 6.463775 1 2  19.391326
pair_coeff 4  14 wf/cut 0.211200 6.246251 1 2  18.738753
pair_coeff 4  15 wf/cut 0.046179 5.648008 1 2  16.944023
pair_coeff 4  16 wf/cut 0.199088 6.100529 1 2  18.301586
pair_coeff 4  17 wf/cut 0.112303 5.896099 1 2  17.688298
pair_coeff 4  18 wf/cut 0.054717 5.843196 1 2  17.529588
pair_coeff 4  19 wf/cut 0.050034 5.803212 1 2  17.409635
pair_coeff 4  20 wf/cut 0.015576 6.214617 1 2  18.643851
pair_coeff 4  21 wf/cut 0.271379 7.164531 1 3  21.493592
pair_coeff 4  22 wf/cut 0.182879 7.054531 1 3  21.163592
pair_coeff 4  23 wf/cut 0.273379 7.199531 1 3  21.598592
pair_coeff 4  24 wf/cut 0.167879 7.029531 1 3  21.088592
pair_coeff 4  25 wf/cut 0.049382 6.021255 1 4  19.670758
pair_coeff 4  26 wf/cut 0.096311 5.950635 1 4  19.112959
pair_coeff 4  27 wf/cut 0.048809 6.222021 1 2  18.617469
pair_coeff 4  28 wf/cut 0.042447 6.064277 1 4  19.203180
pair_coeff 4  29 wf/cut 0.096485 5.975269 1 4  18.718346
pair_coeff 4  30 wf/cut 0.049351 5.924951 1 2  18.514666
pair_coeff 4  31 wf/cut 0.043289 6.024144 1 4  19.796281
pair_coeff 4  32 wf/cut 0.029363 6.055011 1 2  19.254871
pair_coeff 4  33 wf/cut 0.039182 6.192918 1 4  19.284441
pair_coeff 4  34 wf/cut 0.074209 5.933330 1 2  19.060030
pair_coeff 4  35 wf/cut 0.047470 5.924937 1 2  18.989056
pair_coeff 4  36 wf/cut 0.028560 5.909124 1 2  18.663554
pair_coeff 4  37 wf/cut 0.048931 5.912485 1 2  19.392264
pair_coeff 4  38 wf/cut 0.094889 6.685958 1 4  19.915177
pair_coeff 4  39 wf/cut 0.096485 5.975269 1 4  18.718346
pair_coeff 4  40 wf/cut 0.037290 6.138490 1 4  19.166905
pair_coeff 4  41 wf/cut 0.045126 5.855006 1 2  18.261123
pair_coeff 4  42 wf/cut 0.028077 6.048769 1 2  18.626735
pair_coeff 4  43 wf/cut 0.048474 6.002892 1 4  18.707712
pair_coeff 4  44 wf/cut 0.030618 6.045693 1 2  19.140247
pair_coeff 4  45 wf/cut 0.028560 5.909124 1 2  18.663554
pair_coeff 4  46 wf/cut 0.047470 5.924937 1 2  18.989056
pair_coeff 4  47 wf/cut 0.103686 5.931253 1 2  18.952691
pair_coeff 4  48 wf/cut 0.053881 5.910773 1 2  19.154441
pair_coeff 4  49 wf/cut 0.047876 5.941828 1 4  19.257794
pair_coeff 4  50 wf/cut 0.028560 5.909124 1 2  18.663554
pair_coeff 4  51 wf/cut 0.047876 5.941828 1 4  19.257794
pair_coeff 4  52 wf/cut 0.049351 5.924951 1 2  18.514666
pair_coeff 4  53 wf/cut 0.052052 6.004950 1 4  19.654697
pair_coeff 4  54 wf/cut 0.095251 6.009513 1 4  18.952753
pair_coeff 4  55 wf/cut 0.096485 5.994801 1 4  19.261791
pair_coeff 4  56 wf/cut 0.095251 6.009513 1 4  18.952753
pair_coeff 4  57 wf/cut 0.049039 6.001382 1 4  19.442288
pair_coeff 4  58 wf/cut 0.040882 6.021407 1 4  19.613263
pair_coeff 4  59 wf/cut 0.068432 6.561284 1 4  19.297242
pair_coeff 4  60 wf/cut 0.039182 6.192918 1 4  19.284441
pair_coeff 5  5  wf/cut 0.089916 6.839051 1 2  20.517153
pair_coeff 5  6  wf/cut 0.176473 6.049093 1 2  18.147279
pair_coeff 5  7  wf/cut 0.001522 6.329860 1 2  18.989581
pair_coeff 5  8  wf/cut 0.001554 6.507088 1 2  19.521264
pair_coeff 5  9  wf/cut 0.607820 6.786239 1 2  20.358716
pair_coeff 5  10 wf/cut 0.154522 6.477801 1 2  19.433402
pair_coeff 5  11 wf/cut 0.157232 6.644607 1 2  19.933820
pair_coeff 5  12 wf/cut 0.251957 6.558280 1 2  19.674840
pair_coeff 5  13 wf/cut 0.691657 6.952551 1 2  20.857653
pair_coeff 5  14 wf/cut 0.544942 6.734245 1 2  20.202735
pair_coeff 5  15 wf/cut 0.182533 6.121907 1 2  18.365722
pair_coeff 5  16 wf/cut 0.124237 6.588371 1 2  19.765114
pair_coeff 5  17 wf/cut 0.248657 6.381028 1 2  19.143083
pair_coeff 5  18 wf/cut 0.191071 6.319851 1 2  18.959553
pair_coeff 5  19 wf/cut 0.186388 6.278276 1 2  18.834827
pair_coeff 5  20 wf/cut 0.151930 6.644914 1 2  19.934743
pair_coeff 5  21 wf/cut 0.601916 7.639526 1 3  22.918577
pair_coeff 5  22 wf/cut 0.424916 7.529526 1 3  22.588577
pair_coeff 5  23 wf/cut 0.605916 7.674526 1 3  23.023577
pair_coeff 5  24 wf/cut 0.394916 7.504526 1 3  22.513577
pair_coeff 5  25 wf/cut 0.084432 6.496250 1 4  21.095742
pair_coeff 5  26 wf/cut 0.164670 6.425630 1 4  20.537943
pair_coeff 5  27 wf/cut 0.083453 6.697016 1 2  20.042453
pair_coeff 5  28 wf/cut 0.072575 6.539272 1 4  20.628165
pair_coeff 5  29 wf/cut 0.164967 6.450263 1 4  20.143331
pair_coeff 5  30 wf/cut 0.084379 6.399946 1 2  19.939650
pair_coeff 5  31 wf/cut 0.074015 6.499139 1 4  21.221265
pair_coeff 5  32 wf/cut 0.050204 6.530006 1 2  20.679855
pair_coeff 5  33 wf/cut 0.066993 6.667913 1 4  20.709426
pair_coeff 5  34 wf/cut 0.126880 6.408325 1 2  20.485014
pair_coeff 5  35 wf/cut 0.081163 6.399932 1 2  20.414041
pair_coeff 5  36 wf/cut 0.048832 6.384118 1 2  20.088539
pair_coeff 5  37 wf/cut 0.083661 6.387479 1 2  20.817248
pair_coeff 5  38 wf/cut 0.162239 7.160953 1 4  21.340162
pair_coeff 5  39 wf/cut 0.164967 6.450263 1 4  20.143331
pair_coeff 5  40 wf/cut 0.063757 6.613485 1 4  20.591889
pair_coeff 5  41 wf/cut 0.077156 6.330001 1 2  19.686107
pair_coeff 5  42 wf/cut 0.048005 6.523764 1 2  20.051719
pair_coeff 5  43 wf/cut 0.082881 6.477887 1 4  20.132697
pair_coeff 5  44 wf/cut 0.052349 6.520687 1 2  20.565231
pair_coeff 5  45 wf/cut 0.048832 6.384118 1 2  20.088539
pair_coeff 5  46 wf/cut 0.081163 6.399932 1 2  20.414041
pair_coeff 5  47 wf/cut 0.177279 6.406248 1 2  20.377675
pair_coeff 5  48 wf/cut 0.092125 6.385768 1 2  20.579425
pair_coeff 5  49 wf/cut 0.081858 6.416823 1 4  20.682778
pair_coeff 5  50 wf/cut 0.048832 6.384118 1 2  20.088539
pair_coeff 5  51 wf/cut 0.081858 6.416823 1 4  20.682778
pair_coeff 5  52 wf/cut 0.084379 6.399946 1 2  19.939650
pair_coeff 5  53 wf/cut 0.088997 6.479945 1 4  21.079681
pair_coeff 5  54 wf/cut 0.162858 6.484508 1 4  20.377737
pair_coeff 5  55 wf/cut 0.164967 6.469795 1 4  20.686776
pair_coeff 5  56 wf/cut 0.162858 6.484508 1 4  20.377737
pair_coeff 5  57 wf/cut 0.083846 6.476376 1 4  20.867273
pair_coeff 5  58 wf/cut 0.069899 6.496402 1 4  21.038247
pair_coeff 5  59 wf/cut 0.117004 7.036278 1 4  20.722226
pair_coeff 5  60 wf/cut 0.066993 6.667913 1 4  20.709426
pair_coeff 6  6  wf/cut 0.049480 5.270074 1 2  15.810221
pair_coeff 6  7  wf/cut 0.078130 5.545104 1 2  16.635312
pair_coeff 6  8  wf/cut 0.082535 5.721983 1 2  17.165950
pair_coeff 6  9  wf/cut 0.234333 5.995375 1 2  17.986125
pair_coeff 6  10 wf/cut 0.027529 5.714673 1 2  17.144019
pair_coeff 6  11 wf/cut 0.030239 5.879183 1 2  17.637550
pair_coeff 6  12 wf/cut 0.124964 5.769878 1 2  17.309635
pair_coeff 6  13 wf/cut 0.299889 6.161220 1 2  18.483659
pair_coeff 6  14 wf/cut 0.220561 5.943524 1 2  17.830573
pair_coeff 6  15 wf/cut 0.055540 5.341187 1 2  16.023560
pair_coeff 6  16 wf/cut 0.208449 5.797766 1 2  17.393298
pair_coeff 6  17 wf/cut 0.121665 5.592677 1 2  16.778030
pair_coeff 6  18 wf/cut 0.064078 5.537384 1 2  16.612152
pair_coeff 6  19 wf/cut 0.059395 5.496868 1 2  16.490603
pair_coeff 6  20 wf/cut 0.024937 5.887264 1 2  17.661792
pair_coeff 6  21 wf/cut 0.280740 6.855037 1 3  20.565110
pair_coeff 6  22 wf/cut 0.192240 6.745037 1 3  20.235110
pair_coeff 6  23 wf/cut 0.282740 6.890037 1 3  20.670110
pair_coeff 6  24 wf/cut 0.177240 6.720037 1 3  20.160110
pair_coeff 6  25 wf/cut 0.062633 5.711761 1 4  18.742276
pair_coeff 6  26 wf/cut 0.122155 5.641141 1 4  18.184477
pair_coeff 6  27 wf/cut 0.061907 5.912527 1 2  17.688987
pair_coeff 6  28 wf/cut 0.053837 5.754783 1 4  18.274698
pair_coeff 6  29 wf/cut 0.122376 5.665775 1 4  17.789864
pair_coeff 6  30 wf/cut 0.062594 5.615457 1 2  17.586184
pair_coeff 6  31 wf/cut 0.054905 5.714650 1 4  18.867799
pair_coeff 6  32 wf/cut 0.037242 5.745517 1 2  18.326389
pair_coeff 6  33 wf/cut 0.049696 5.883424 1 4  18.355959
pair_coeff 6  34 wf/cut 0.094122 5.623836 1 2  18.131548
pair_coeff 6  35 wf/cut 0.060208 5.615443 1 2  18.060574
pair_coeff 6  36 wf/cut 0.036224 5.599630 1 2  17.735072
pair_coeff 6  37 wf/cut 0.062061 5.602991 1 2  18.463782
pair_coeff 6  38 wf/cut 0.120352 6.376464 1 4  18.986695
pair_coeff 6  39 wf/cut 0.122376 5.665775 1 4  17.789864
pair_coeff 6  40 wf/cut 0.047296 5.828996 1 4  18.238423
pair_coeff 6  41 wf/cut 0.057235 5.545512 1 2  17.332641
pair_coeff 6  42 wf/cut 0.035611 5.739275 1 2  17.698253
pair_coeff 6  43 wf/cut 0.061482 5.693398 1 4  17.779230
pair_coeff 6  44 wf/cut 0.038834 5.736199 1 2  18.211765
pair_coeff 6  45 wf/cut 0.036224 5.599630 1 2  17.735072
pair_coeff 6  46 wf/cut 0.060208 5.615443 1 2  18.060574
pair_coeff 6  47 wf/cut 0.131509 5.621759 1 2  18.024209
pair_coeff 6  48 wf/cut 0.068340 5.601279 1 2  18.225959
pair_coeff 6  49 wf/cut 0.060723 5.632334 1 4  18.329312
pair_coeff 6  50 wf/cut 0.036224 5.599630 1 2  17.735072
pair_coeff 6  51 wf/cut 0.060723 5.632334 1 4  18.329312
pair_coeff 6  52 wf/cut 0.062594 5.615457 1 2  17.586184
pair_coeff 6  53 wf/cut 0.066019 5.695456 1 4  18.726215
pair_coeff 6  54 wf/cut 0.120811 5.700019 1 4  18.024271
pair_coeff 6  55 wf/cut 0.122376 5.685307 1 4  18.333309
pair_coeff 6  56 wf/cut 0.120811 5.700019 1 4  18.024271
pair_coeff 6  57 wf/cut 0.062199 5.691888 1 4  18.513806
pair_coeff 6  58 wf/cut 0.051852 5.711913 1 4  18.684781
pair_coeff 6  59 wf/cut 0.086795 6.251790 1 4  18.368760
pair_coeff 6  60 wf/cut 0.049696 5.883424 1 4  18.355959
pair_coeff 7  7  wf/cut 0.079096 5.823522 1 2  17.470565
pair_coeff 7  8  wf/cut 0.082359 6.000582 1 2  18.001747
pair_coeff 7  9  wf/cut 0.262983 6.276474 1 2  18.829421
pair_coeff 7  10 wf/cut 0.056178 5.978735 1 2  17.936206
pair_coeff 7  11 wf/cut 0.058888 6.145089 1 2  18.435268
pair_coeff 7  12 wf/cut 0.153614 6.050040 1 2  18.150121
pair_coeff 7  13 wf/cut 0.328538 6.442440 1 2  19.327321
pair_coeff 7  14 wf/cut 0.249211 6.224557 1 2  18.673672
pair_coeff 7  15 wf/cut 0.084189 5.617299 1 2  16.851896
pair_coeff 7  16 wf/cut 0.001758 6.078759 1 2  18.236278
pair_coeff 7  17 wf/cut 0.150314 5.872796 1 2  17.618389
pair_coeff 7  18 wf/cut 0.092728 5.814546 1 2  17.443637
pair_coeff 7  19 wf/cut 0.088045 5.773404 1 2  17.320213
pair_coeff 7  20 wf/cut 0.053587 6.146988 1 2  18.440965
pair_coeff 7  21 wf/cut 0.295548 7.131761 1 3  21.395283
pair_coeff 7  22 wf/cut 0.207048 7.021761 1 3  21.065283
pair_coeff 7  23 wf/cut 0.297548 7.166761 1 3  21.500283
pair_coeff 7  24 wf/cut 0.192048 6.996761 1 3  20.990283
pair_coeff 7  25 wf/cut 0.079189 5.988485 1 4  19.572448
pair_coeff 7  26 wf/cut 0.154444 5.917866 1 4  19.014649
pair_coeff 7  27 wf/cut 0.078271 6.189251 1 2  18.519159
pair_coeff 7  28 wf/cut 0.068068 6.031507 1 4  19.104871
pair_coeff 7  29 wf/cut 0.154724 5.942499 1 4  18.620037
pair_coeff 7  30 wf/cut 0.079140 5.892181 1 2  18.416356
pair_coeff 7  31 wf/cut 0.069419 5.991374 1 4  19.697971
pair_coeff 7  32 wf/cut 0.047086 6.022241 1 2  19.156561
pair_coeff 7  33 wf/cut 0.062833 6.160148 1 4  19.186132
pair_coeff 7  34 wf/cut 0.119002 5.900560 1 2  18.961720
pair_coeff 7  35 wf/cut 0.076123 5.892167 1 2  18.890747
pair_coeff 7  36 wf/cut 0.045799 5.876354 1 2  18.565245
pair_coeff 7  37 wf/cut 0.078466 5.879715 1 2  19.293954
pair_coeff 7  38 wf/cut 0.152165 6.653188 1 4  19.816868
pair_coeff 7  39 wf/cut 0.154724 5.942499 1 4  18.620037
pair_coeff 7  40 wf/cut 0.059798 6.105720 1 4  19.068595
pair_coeff 7  41 wf/cut 0.072365 5.822236 1 2  18.162813
pair_coeff 7  42 wf/cut 0.045024 6.015999 1 2  18.528425
pair_coeff 7  43 wf/cut 0.077734 5.970122 1 4  18.609403
pair_coeff 7  44 wf/cut 0.049099 6.012923 1 2  19.041937
pair_coeff 7  45 wf/cut 0.045799 5.876354 1 2  18.565245
pair_coeff 7  46 wf/cut 0.076123 5.892167 1 2  18.890747
pair_coeff 7  47 wf/cut 0.166271 5.898483 1 2  18.854381
pair_coeff 7  48 wf/cut 0.086404 5.878004 1 2  19.056131
pair_coeff 7  49 wf/cut 0.076775 5.909058 1 4  19.159484
pair_coeff 7  50 wf/cut 0.045799 5.876354 1 2  18.565245
pair_coeff 7  51 wf/cut 0.076775 5.909058 1 4  19.159484
pair_coeff 7  52 wf/cut 0.079140 5.892181 1 2  18.416356
pair_coeff 7  53 wf/cut 0.083470 5.972180 1 4  19.556387
pair_coeff 7  54 wf/cut 0.152745 5.976743 1 4  18.854443
pair_coeff 7  55 wf/cut 0.154724 5.962031 1 4  19.163482
pair_coeff 7  56 wf/cut 0.152745 5.976743 1 4  18.854443
pair_coeff 7  57 wf/cut 0.078640 5.968612 1 4  19.343979
pair_coeff 7  58 wf/cut 0.065559 5.988637 1 4  19.514953
pair_coeff 7  59 wf/cut 0.109738 6.528514 1 4  19.198932
pair_coeff 7  60 wf/cut 0.062833 6.160148 1 4  19.186132
pair_coeff 8  8  wf/cut 0.085622 6.177670 1 2  18.533011
pair_coeff 8  9  wf/cut 0.267388 6.453698 1 2  19.361095
pair_coeff 8  10 wf/cut 0.060583 6.155039 1 2  18.465116
pair_coeff 8  11 wf/cut 0.063293 6.321457 1 2  18.964372
pair_coeff 8  12 wf/cut 0.158019 6.227214 1 2  18.681642
pair_coeff 8  13 wf/cut 0.332943 6.619692 1 2  19.859075
pair_coeff 8  14 wf/cut 0.253616 6.401799 1 2  19.205397
pair_coeff 8  15 wf/cut 0.088594 5.794220 1 2  17.382659
pair_coeff 8  16 wf/cut 0.001791 6.256001 1 2  18.768002
pair_coeff 8  17 wf/cut 0.154719 6.049989 1 2  18.149967
pair_coeff 8  18 wf/cut 0.097133 5.991525 1 2  17.974575
pair_coeff 8  19 wf/cut 0.092450 5.950365 1 2  17.851094
pair_coeff 8  20 wf/cut 0.057992 6.323326 1 2  18.969977
pair_coeff 8  21 wf/cut 0.298811 7.308835 1 3  21.926505
pair_coeff 8  22 wf/cut 0.210311 7.198835 1 3  21.596505
pair_coeff 8  23 wf/cut 0.300811 7.343835 1 3  22.031505
pair_coeff 8  24 wf/cut 0.195311 7.173835 1 3  21.521505
pair_coeff 8  25 wf/cut 0.082391 6.165559 1 4  20.103671
pair_coeff 8  26 wf/cut 0.160689 6.094940 1 4  19.545872
pair_coeff 8  27 wf/cut 0.081436 6.366326 1 2  19.050382
pair_coeff 8  28 wf/cut 0.070821 6.208582 1 4  19.636094
pair_coeff 8  29 wf/cut 0.160980 6.119573 1 4  19.151260
pair_coeff 8  30 wf/cut 0.082340 6.069255 1 2  18.947579
pair_coeff 8  31 wf/cut 0.072226 6.168448 1 4  20.229194
pair_coeff 8  32 wf/cut 0.048990 6.199315 1 2  19.687784
pair_coeff 8  33 wf/cut 0.065373 6.337222 1 4  19.717354
pair_coeff 8  34 wf/cut 0.123814 6.077635 1 2  19.492943
pair_coeff 8  35 wf/cut 0.079201 6.069241 1 2  19.421969
pair_coeff 8  36 wf/cut 0.047651 6.053428 1 2  19.096468
pair_coeff 8  37 wf/cut 0.081639 6.056789 1 2  19.825177
pair_coeff 8  38 wf/cut 0.158318 6.830263 1 4  20.348090
pair_coeff 8  39 wf/cut 0.160980 6.119573 1 4  19.151260
pair_coeff 8  40 wf/cut 0.062216 6.282794 1 4  19.599818
pair_coeff 8  41 wf/cut 0.075291 5.999310 1 2  18.694036
pair_coeff 8  42 wf/cut 0.046845 6.193073 1 2  19.059648
pair_coeff 8  43 wf/cut 0.080877 6.147196 1 4  19.140625
pair_coeff 8  44 wf/cut 0.051084 6.189997 1 2  19.573160
pair_coeff 8  45 wf/cut 0.047651 6.053428 1 2  19.096468
pair_coeff 8  46 wf/cut 0.079201 6.069241 1 2  19.421969
pair_coeff 8  47 wf/cut 0.172994 6.075558 1 2  19.385604
pair_coeff 8  48 wf/cut 0.089898 6.055078 1 2  19.587354
pair_coeff 8  49 wf/cut 0.079879 6.086132 1 4  19.690707
pair_coeff 8  50 wf/cut 0.047651 6.053428 1 2  19.096468
pair_coeff 8  51 wf/cut 0.079879 6.086132 1 4  19.690707
pair_coeff 8  52 wf/cut 0.082340 6.069255 1 2  18.947579
pair_coeff 8  53 wf/cut 0.086846 6.149254 1 4  20.087610
pair_coeff 8  54 wf/cut 0.158921 6.153817 1 4  19.385666
pair_coeff 8  55 wf/cut 0.160980 6.139105 1 4  19.694705
pair_coeff 8  56 wf/cut 0.158921 6.153817 1 4  19.385666
pair_coeff 8  57 wf/cut 0.081820 6.145686 1 4  19.875202
pair_coeff 8  58 wf/cut 0.068210 6.165711 1 4  20.046176
pair_coeff 8  59 wf/cut 0.114176 6.705588 1 4  19.730155
pair_coeff 8  60 wf/cut 0.065373 6.337222 1 4  19.717354
pair_coeff 9  9  wf/cut 0.419186 6.733634 1 2  20.200902
pair_coeff 9  10 wf/cut 0.212382 6.423549 1 2  19.270647
pair_coeff 9  11 wf/cut 0.215092 6.590388 1 2  19.771164
pair_coeff 9  12 wf/cut 0.309817 6.505249 1 2  19.515747
pair_coeff 9  13 wf/cut 0.484741 6.900050 1 2  20.700151
pair_coeff 9  14 wf/cut 0.405414 6.681589 1 2  20.044767
pair_coeff 9  15 wf/cut 0.240393 6.068281 1 2  18.204842
pair_coeff 9  16 wf/cut 0.393302 6.535691 1 2  19.607074
pair_coeff 9  17 wf/cut 0.306517 6.327983 1 2  18.983948
pair_coeff 9  18 wf/cut 0.248931 6.266295 1 2  18.798886
pair_coeff 9  19 wf/cut 0.244248 6.224651 1 2  18.673952
pair_coeff 9  20 wf/cut 0.209790 6.590551 1 2  19.771652
pair_coeff 9  21 wf/cut 0.465593 7.586817 1 3  22.760451
pair_coeff 9  22 wf/cut 0.377093 7.476817 1 3  22.430451
pair_coeff 9  23 wf/cut 0.467593 7.621817 1 3  22.865451
pair_coeff 9  24 wf/cut 0.362093 7.451817 1 3  22.355451
pair_coeff 9  25 wf/cut 0.182301 6.443541 1 4  20.937616
pair_coeff 9  26 wf/cut 0.355548 6.372922 1 4  20.379818
pair_coeff 9  27 wf/cut 0.180189 6.644307 1 2  19.884327
pair_coeff 9  28 wf/cut 0.156700 6.486563 1 4  20.470039
pair_coeff 9  29 wf/cut 0.356191 6.397555 1 4  19.985205
pair_coeff 9  30 wf/cut 0.182189 6.347237 1 2  19.781524
pair_coeff 9  31 wf/cut 0.159810 6.446430 1 4  21.063140
pair_coeff 9  32 wf/cut 0.108398 6.477297 1 2  20.521729
pair_coeff 9  33 wf/cut 0.144648 6.615204 1 4  20.551300
pair_coeff 9  34 wf/cut 0.273955 6.355616 1 2  20.326888
pair_coeff 9  35 wf/cut 0.175243 6.347223 1 2  20.255915
pair_coeff 9  36 wf/cut 0.105435 6.331410 1 2  19.930413
pair_coeff 9  37 wf/cut 0.180638 6.334771 1 2  20.659122
pair_coeff 9  38 wf/cut 0.350300 7.108245 1 4  21.182036
pair_coeff 9  39 wf/cut 0.356191 6.397555 1 4  19.985205
pair_coeff 9  40 wf/cut 0.137662 6.560776 1 4  20.433764