# MPiPi Settings File

# Charges
set type 3   charge 0.750000
set type 5   charge 0.750000
set type 7   charge -0.750000
set type 8   charge -0.750000
set type 16  charge 0.375000
set type 21  charge -0.750000
set type 22  charge -0.750000
set type 23  charge -0.750000
set type 24  charge -0.750000

# Bonds
bond_coeff 1   9.600000 3.810000
bond_coeff 2   9.600000 5.000000
bond_coeff 3   9.600000 6.058000
bond_coeff 4   9.600000 9.671000
bond_coeff 5   9.600000 5.262000
bond_coeff 6   9.600000 4.064000
bond_coeff 7   9.600000 5.041000
bond_coeff 8   9.600000 3.509000
bond_coeff 9   9.600000 4.225000
bond_coeff 10  9.600000 4.810000
bond_coeff 11  9.600000 6.570000
bond_coeff 12  9.600000 6.217000
bond_coeff 13  9.600000 6.225000
bond_coeff 14  9.600000 7.461000
bond_coeff 15  9.600000 8.141000
bond_coeff 16  9.600000 7.305000
bond_coeff 17  9.600000 4.827000
bond_coeff 18  9.600000 4.729000
bond_coeff 19  9.600000 7.577000
bond_coeff 20  9.600000 6.535000
bond_coeff 21  9.600000 7.976000
bond_coeff 22  9.600000 5.688000

# Pair Style
pair_style  hybrid/overlay wf/cut 25.0 coul/debye 0.126 0.0

# Pairwise Interactions
pair_coeff 1  1  wf/cut 0.039564 6.467951 1 2  19.403853
pair_coeff 1  2  wf/cut 0.068017 5.576178 1 2  16.728535
pair_coeff 1  3  wf/cut 0.032686 6.567784 1 2  19.703351
pair_coeff 1  4  wf/cut 0.035161 6.178228 1 2  18.534684
pair_coeff 1  5  wf/cut 0.171515 6.643965 1 2  19.931895
pair_coeff 1  6  wf/cut 0.044522 5.868502 1 2  17.605506
pair_coeff 1  7  wf/cut 0.073172 6.141460 1 2  18.424379
pair_coeff 1  8  wf/cut 0.077577 6.318177 1 2  18.954530
pair_coeff 1  9  wf/cut 0.229375 6.590037 1 2  19.770112
pair_coeff 1  10 wf/cut 0.022571 6.320572 1 2  18.961715
pair_coeff 1  11 wf/cut 0.025281 6.483444 1 2  19.450331
pair_coeff 1  12 wf/cut 0.120006 6.365188 1 2  19.095564
pair_coeff 1  13 wf/cut 0.294931 6.755728 1 2  20.267185
pair_coeff 1  14 wf/cut 0.215603 6.538209 1 2  19.614626
pair_coeff 1  15 wf/cut 0.050582 5.938941 1 2  17.816822
pair_coeff 1  16 wf/cut 0.203491 6.392507 1 2  19.177522
pair_coeff 1  17 wf/cut 0.116706 6.188018 1 2  18.564055
pair_coeff 1  18 wf/cut 0.059120 6.134464 1 2  18.403392
pair_coeff 1  19 wf/cut 0.054437 6.094295 1 2  18.282884
pair_coeff 1  20 wf/cut 0.019979 6.496393 1 2  19.489179
pair_coeff 1  21 wf/cut 0.275782 7.453975 1 3  22.361926
pair_coeff 1  22 wf/cut 0.187282 7.343975 1 3  22.031926
pair_coeff 1  23 wf/cut 0.277782 7.488975 1 3  22.466926
pair_coeff 1  24 wf/cut 0.172282 7.318975 1 3  21.956926
pair_coeff 1  25 wf/cut 0.118893 6.128996 0 2  18.614627
pair_coeff 1  26 wf/cut 0.081053 6.465444 0 2  18.702611
pair_coeff 1  27 wf/cut 0.120261 6.991971 0 2  18.682764
pair_coeff 1  28 wf/cut 0.074299 6.428627 0 2  19.860929
pair_coeff 1  29 wf/cut 0.074299 6.428627 0 2  19.860929
pair_coeff 1  30 wf/cut 0.096317 6.080998 0 2  19.504863
pair_coeff 1  31 wf/cut 0.092894 5.989640 0 2  18.766636
pair_coeff 1  32 wf/cut 0.042241 6.561752 0 2  19.439351
pair_coeff 1  33 wf/cut 0.081229 6.440250 0 2  19.548121
pair_coeff 1  34 wf/cut 0.035907 6.533600 0 4  19.949350
pair_coeff 1  35 wf/cut 0.074747 6.101122 0 2  20.595658
pair_coeff 1  36 wf/cut 0.080146 5.937804 0 2  19.611766
pair_coeff 1  37 wf/cut 0.111094 6.629586 0 2  19.925166
pair_coeff 1  38 wf/cut 0.071701 6.136853 0 2  19.347856
pair_coeff 1  39 wf/cut 0.083996 6.339584 0 2  18.618414
pair_coeff 1  40 wf/cut 0.055316 6.119375 0 2  19.439487
pair_coeff 1  41 wf/cut 0.043778 6.251840 0 2  18.994990
pair_coeff 1  42 wf/cut 0.070628 6.627631 0 2  19.418476
pair_coeff 1  43 wf/cut 0.080146 6.413618 0 2  19.327244
pair_coeff 1  44 wf/cut 0.086411 6.466014 0 2  18.732809
pair_coeff 1  45 wf/cut 0.071701 6.136853 0 2  19.347856
pair_coeff 1  46 wf/cut 0.111094 6.629586 0 2  19.925166
pair_coeff 1  47 wf/cut 0.100710 7.236788 0 2  18.764163
pair_coeff 1  48 wf/cut 0.072261 6.154312 0 2  19.746517
pair_coeff 1  49 wf/cut 0.032765 6.582094 0 4  19.819716
pair_coeff 1  50 wf/cut 0.071701 6.136853 0 2  19.347856
pair_coeff 1  51 wf/cut 0.032765 6.582094 0 4  19.819716
pair_coeff 1  52 wf/cut 0.116816 6.366634 0 2  18.939377
pair_coeff 1  53 wf/cut 0.081964 6.138144 0 2  19.234049
pair_coeff 1  54 wf/cut 0.078474 6.412549 0 2  19.501325
pair_coeff 1  55 wf/cut 0.075279 6.150382 0 2  18.611255
pair_coeff 1  56 wf/cut 0.037694 6.589358 0 2  19.846190
pair_coeff 1  57 wf/cut 0.037694 6.589358 0 2  19.846190
pair_coeff 1  58 wf/cut 0.074084 6.245876 0 2  19.777386
pair_coeff 1  59 wf/cut 0.084099 6.063010 0 2  19.999760
pair_coeff 1  60 wf/cut 0.109478 6.266891 0 2  19.799826
pair_coeff 1  61 wf/cut 0.055316 6.119375 0 2  19.439487
pair_coeff 1  62 wf/cut 0.085073 6.482376 0 2  19.212241
pair_coeff 2  2  wf/cut 0.096470 4.695110 1 2  14.085331
pair_coeff 2  3  wf/cut 0.061139 5.671338 1 2  17.014015
pair_coeff 2  4  wf/cut 0.063614 5.284425 1 2  15.853275
pair_coeff 2  5  wf/cut 0.199968 5.766386 1 2  17.299159
pair_coeff 2  6  wf/cut 0.072975 4.980135 1 2  14.940404
pair_coeff 2  7  wf/cut 0.101625 5.259255 1 2  15.777764
pair_coeff 2  8  wf/cut 0.106030 5.436375 1 2  16.309124
pair_coeff 2  9  wf/cut 0.257828 5.713165 1 2  17.139496
pair_coeff 2  10 wf/cut 0.051024 5.412393 1 2  16.237180
pair_coeff 2  11 wf/cut 0.053734 5.578930 1 2  16.736791
pair_coeff 2  12 wf/cut 0.148459 5.486299 1 2  16.458898
pair_coeff 2  13 wf/cut 0.323384 5.879238 1 2  17.637714
pair_coeff 2  14 wf/cut 0.244056 5.661219 1 2  16.983656
pair_coeff 2  15 wf/cut 0.079035 5.052525 1 2  15.157574
pair_coeff 2  16 wf/cut 0.231944 5.515412 1 2  16.546235
pair_coeff 2  17 wf/cut 0.145159 5.309016 1 2  15.927049
pair_coeff 2  18 wf/cut 0.087573 5.249991 1 2  15.749972
pair_coeff 2  19 wf/cut 0.082890 5.208723 1 2  15.626168
pair_coeff 2  20 wf/cut 0.048432 5.580329 1 2  16.740988
pair_coeff 2  21 wf/cut 0.304235 6.567555 1 3  19.702665
pair_coeff 2  22 wf/cut 0.215735 6.457555 1 3  19.372665
pair_coeff 2  23 wf/cut 0.306235 6.602555 1 3  19.807665
pair_coeff 2  24 wf/cut 0.200735 6.432555 1 3  19.297665
pair_coeff 2  25 wf/cut 0.185653 5.242576 0 2  15.955366
pair_coeff 2  26 wf/cut 0.126565 5.579023 0 2  16.043350
pair_coeff 2  27 wf/cut 0.187790 6.105551 0 2  16.023503
pair_coeff 2  28 wf/cut 0.116019 5.542206 0 2  17.201668
pair_coeff 2  29 wf/cut 0.116019 5.542206 0 2  17.201668
pair_coeff 2  30 wf/cut 0.150400 5.194578 0 2  16.845602
pair_coeff 2  31 wf/cut 0.145056 5.103219 0 2  16.107375
pair_coeff 2  32 wf/cut 0.065960 5.675332 0 2  16.780090
pair_coeff 2  33 wf/cut 0.126841 5.553829 0 2  16.888860
pair_coeff 2  34 wf/cut 0.056069 5.647179 0 4  17.290089
pair_coeff 2  35 wf/cut 0.116718 5.214701 0 2  17.936397
pair_coeff 2  36 wf/cut 0.125149 5.051384 0 2  16.952505
pair_coeff 2  37 wf/cut 0.173475 5.743165 0 2  17.265905
pair_coeff 2  38 wf/cut 0.111962 5.250433 0 2  16.688595
pair_coeff 2  39 wf/cut 0.131160 5.453164 0 2  15.959153
pair_coeff 2  40 wf/cut 0.086377 5.232955 0 2  16.780226
pair_coeff 2  41 wf/cut 0.068360 5.365420 0 2  16.335729
pair_coeff 2  42 wf/cut 0.110287 5.741211 0 2  16.759215
pair_coeff 2  43 wf/cut 0.125149 5.527198 0 2  16.667983
pair_coeff 2  44 wf/cut 0.134932 5.579593 0 2  16.073548
pair_coeff 2  45 wf/cut 0.111962 5.250433 0 2  16.688595
pair_coeff 2  46 wf/cut 0.173475 5.743165 0 2  17.265905
pair_coeff 2  47 wf/cut 0.157260 6.350367 0 2  16.104902
pair_coeff 2  48 wf/cut 0.112836 5.267892 0 2  17.087256
pair_coeff 2  49 wf/cut 0.051163 5.695674 0 4  17.160455
pair_coeff 2  50 wf/cut 0.111962 5.250433 0 2  16.688595
pair_coeff 2  51 wf/cut 0.051163 5.695674 0 4  17.160455
pair_coeff 2  52 wf/cut 0.182409 5.480213 0 2  16.280116
pair_coeff 2  53 wf/cut 0.127988 5.251724 0 2  16.574788
pair_coeff 2  54 wf/cut 0.122538 5.526129 0 2  16.842064
pair_coeff 2  55 wf/cut 0.117550 5.263962 0 2  15.951994
pair_coeff 2  56 wf/cut 0.058861 5.702938 0 2  17.186929
pair_coeff 2  57 wf/cut 0.058861 5.702938 0 2  17.186929
pair_coeff 2  58 wf/cut 0.115683 5.359455 0 2  17.118125
pair_coeff 2  59 wf/cut 0.131322 5.176590 0 2  17.340499
pair_coeff 2  60 wf/cut 0.170952 5.380471 0 2  17.140565
pair_coeff 2  61 wf/cut 0.086377 5.232955 0 2  16.780226
pair_coeff 2  62 wf/cut 0.132842 5.595956 0 2  16.552980
pair_coeff 3  3  wf/cut 0.019117 6.671341 1 2  20.014022
pair_coeff 3  4  wf/cut 0.028283 6.279400 1 2  18.838200
pair_coeff 3  5  wf/cut 0.121938 6.738192 1 2  20.214576
pair_coeff 3  6  wf/cut 0.037644 5.966686 1 2  17.900059
pair_coeff 3  7  wf/cut 0.000493 6.236987 1 2  18.710962
pair_coeff 3  8  wf/cut 0.000526 6.413575 1 2  19.240725
pair_coeff 3  9  wf/cut 0.102701 6.684083 1 2  20.052250
pair_coeff 3  10 wf/cut 0.015693 6.433541 1 2  19.300623
pair_coeff 3  11 wf/cut 0.018403 6.592558 1 2  19.777673
pair_coeff 3  12 wf/cut 0.113128 6.459694 1 2  19.379081
pair_coeff 3  13 wf/cut 0.104796 6.849685 1 2  20.549056
pair_coeff 3  14 wf/cut 0.115276 6.632280 1 2  19.896841
pair_coeff 3  15 wf/cut 0.043704 6.036180 1 2  18.108539
pair_coeff 3  16 wf/cut 0.087370 6.486603 1 2  19.459809
pair_coeff 3  17 wf/cut 0.109828 6.282546 1 2  18.847638
pair_coeff 3  18 wf/cut 0.052242 6.231062 1 2  18.693185
pair_coeff 3  19 wf/cut 0.047559 6.191154 1 2  18.573461
pair_coeff 3  20 wf/cut 0.013101 6.617996 1 2  19.853989
pair_coeff 3  21 wf/cut 0.159335 7.555670 1 3  22.667011
pair_coeff 3  22 wf/cut 0.106235 7.445670 1 3  22.337011
pair_coeff 3  23 wf/cut 0.160535 7.590670 1 3  22.772011
pair_coeff 3  24 wf/cut 0.097235 7.420670 1 3  22.262011
pair_coeff 3  25 wf/cut 0.082645 6.230691 0 2  18.919712
pair_coeff 3  26 wf/cut 0.056341 6.567138 0 2  19.007696
pair_coeff 3  27 wf/cut 0.083596 7.093666 0 2  18.987849
pair_coeff 3  28 wf/cut 0.051647 6.530321 0 2  20.166014
pair_coeff 3  29 wf/cut 0.051647 6.530321 0 2  20.166014
pair_coeff 3  30 wf/cut 0.066952 6.182693 0 2  19.809947
pair_coeff 3  31 wf/cut 0.064573 6.091335 0 2  19.071721
pair_coeff 3  32 wf/cut 0.029363 6.663447 0 2  19.744436
pair_coeff 3  33 wf/cut 0.056464 6.541944 0 2  19.853205
pair_coeff 3  34 wf/cut 0.024959 6.635295 0 4  20.254434
pair_coeff 3  35 wf/cut 0.051958 6.202816 0 2  20.900742
pair_coeff 3  36 wf/cut 0.055711 6.039499 0 2  19.916850
pair_coeff 3  37 wf/cut 0.077224 6.731280 0 2  20.230251
pair_coeff 3  38 wf/cut 0.049841 6.238548 0 2  19.652940
pair_coeff 3  39 wf/cut 0.058387 6.441279 0 2  18.923499
pair_coeff 3  40 wf/cut 0.038452 6.221070 0 2  19.744572
pair_coeff 3  41 wf/cut 0.030431 6.353535 0 2  19.300075
pair_coeff 3  42 wf/cut 0.049095 6.729326 0 2  19.723561
pair_coeff 3  43 wf/cut 0.055711 6.515313 0 2  19.632329
pair_coeff 3  44 wf/cut 0.060066 6.567709 0 2  19.037894
pair_coeff 3  45 wf/cut 0.049841 6.238548 0 2  19.652940
pair_coeff 3  46 wf/cut 0.077224 6.731280 0 2  20.230251
pair_coeff 3  47 wf/cut 0.070006 7.338482 0 2  19.069247
pair_coeff 3  48 wf/cut 0.050230 6.256007 0 2  20.051602
pair_coeff 3  49 wf/cut 0.022776 6.683789 0 4  20.124800
pair_coeff 3  50 wf/cut 0.049841 6.238548 0 2  19.652940
pair_coeff 3  51 wf/cut 0.022776 6.683789 0 4  20.124800
pair_coeff 3  52 wf/cut 0.081201 6.468329 0 2  19.244462
pair_coeff 3  53 wf/cut 0.056975 6.239839 0 2  19.539133
pair_coeff 3  54 wf/cut 0.054549 6.514244 0 2  19.806409
pair_coeff 3  55 wf/cut 0.052328 6.252077 0 2  18.916340
pair_coeff 3  56 wf/cut 0.026202 6.691053 0 2  20.151274
pair_coeff 3  57 wf/cut 0.026202 6.691053 0 2  20.151274
pair_coeff 3  58 wf/cut 0.051497 6.347571 0 2  20.082471
pair_coeff 3  59 wf/cut 0.058459 6.164705 0 2  20.304844
pair_coeff 3  60 wf/cut 0.076101 6.368586 0 2  20.104910
pair_coeff 3  61 wf/cut 0.038452 6.221070 0 2  19.744572
pair_coeff 3  62 wf/cut 0.059136 6.584071 0 2  19.517325
pair_coeff 4  4  wf/cut 0.030758 5.889062 1 2  17.667185
pair_coeff 4  5  wf/cut 0.167112 6.352016 1 2  19.056047
pair_coeff 4  6  wf/cut 0.040119 5.577948 1 2  16.733843
pair_coeff 4  7  wf/cut 0.068769 5.849866 1 2  17.549599
pair_coeff 4  8  wf/cut 0.073174 6.026541 1 2  18.079624
pair_coeff 4  9  wf/cut 0.224972 6.298063 1 2  18.894189
pair_coeff 4  10 wf/cut 0.018168 6.036965 1 2  18.110896
pair_coeff 4  11 wf/cut 0.020878 6.198089 1 2  18.594267
pair_coeff 4  12 wf/cut 0.115603 6.073288 1 2  18.219864
pair_coeff 4  13 wf/cut 0.290527 6.463775 1 2  19.391326
pair_coeff 4  14 wf/cut 0.211200 6.246251 1 2  18.738753
pair_coeff 4  15 wf/cut 0.046179 5.648008 1 2  16.944023
pair_coeff 4  16 wf/cut 0.199088 6.100529 1 2  18.301586
pair_coeff 4  17 wf/cut 0.112303 5.896099 1 2  17.688298
pair_coeff 4  18 wf/cut 0.054717 5.843196 1 2  17.529588
pair_coeff 4  19 wf/cut 0.050034 5.803212 1 2  17.409635
pair_coeff 4  20 wf/cut 0.015576 6.214617 1 2  18.643851
pair_coeff 4  21 wf/cut 0.271379 7.164531 1 3  21.493592
pair_coeff 4  22 wf/cut 0.182879 7.054531 1 3  21.163592
pair_coeff 4  23 wf/cut 0.273379 7.199531 1 3  21.598592
pair_coeff 4  24 wf/cut 0.167879 7.029531 1 3  21.088592
pair_coeff 4  25 wf/cut 0.104830 5.839551 0 2  17.746293
pair_coeff 4  26 wf/cut 0.071466 6.175999 0 2  17.834277
pair_coeff 4  27 wf/cut 0.106036 6.702526 0 2  17.814430
pair_coeff 4  28 wf/cut 0.065511 6.139182 0 2  18.992595
pair_coeff 4  29 wf/cut 0.065511 6.139182 0 2  18.992595
pair_coeff 4  30 wf/cut 0.084924 5.791553 0 2  18.636529
pair_coeff 4  31 wf/cut 0.081907 5.700195 0 2  17.898302
pair_coeff 4  32 wf/cut 0.037245 6.272307 0 2  18.571017
pair_coeff 4  33 wf/cut 0.071621 6.150805 0 2  18.679787
pair_coeff 4  34 wf/cut 0.031660 6.244155 0 4  19.081016
pair_coeff 4  35 wf/cut 0.065906 5.811677 0 2  19.727324
pair_coeff 4  36 wf/cut 0.070666 5.648360 0 2  18.743432
pair_coeff 4  37 wf/cut 0.097953 6.340141 0 2  19.056832
pair_coeff 4  38 wf/cut 0.063220 5.847409 0 2  18.479522
pair_coeff 4  39 wf/cut 0.074060 6.050139 0 2  17.750080
pair_coeff 4  40 wf/cut 0.048773 5.829930 0 2  18.571153
pair_coeff 4  41 wf/cut 0.038600 5.962395 0 2  18.126656
pair_coeff 4  42 wf/cut 0.062274 6.338186 0 2  18.550142
pair_coeff 4  43 wf/cut 0.070666 6.124173 0 2  18.458910
pair_coeff 4  44 wf/cut 0.076190 6.176569 0 2  17.864475
pair_coeff 4  45 wf/cut 0.063220 5.847409 0 2  18.479522
pair_coeff 4  46 wf/cut 0.097953 6.340141 0 2  19.056832
pair_coeff 4  47 wf/cut 0.088798 6.947343 0 2  17.895829
pair_coeff 4  48 wf/cut 0.063713 5.864867 0 2  18.878183
pair_coeff 4  49 wf/cut 0.028889 6.292650 0 4  18.951382
pair_coeff 4  50 wf/cut 0.063220 5.847409 0 2  18.479522
pair_coeff 4  51 wf/cut 0.028889 6.292650 0 4  18.951382
pair_coeff 4  52 wf/cut 0.102998 6.077189 0 2  18.071043
pair_coeff 4  53 wf/cut 0.072269 5.848699 0 2  18.365715
pair_coeff 4  54 wf/cut 0.069192 6.123105 0 2  18.632991
pair_coeff 4  55 wf/cut 0.066375 5.860937 0 2  17.742921
pair_coeff 4  56 wf/cut 0.033236 6.299913 0 2  18.977856
pair_coeff 4  57 wf/cut 0.033236 6.299913 0 2  18.977856
pair_coeff 4  58 wf/cut 0.065321 5.956431 0 2  18.909052
pair_coeff 4  59 wf/cut 0.074152 5.773566 0 2  19.131426
pair_coeff 4  60 wf/cut 0.096529 5.977447 0 2  18.931492
pair_coeff 4  61 wf/cut 0.048773 5.829930 0 2  18.571153
pair_coeff 4  62 wf/cut 0.075010 6.192932 0 2  18.343907
pair_coeff 5  5  wf/cut 0.089916 6.839051 1 2  20.517153
pair_coeff 5  6  wf/cut 0.176473 6.049093 1 2  18.147279
pair_coeff 5  7  wf/cut 0.001522 6.329860 1 2  18.989581
pair_coeff 5  8  wf/cut 0.001554 6.507088 1 2  19.521264
pair_coeff 5  9  wf/cut 0.607820 6.786239 1 2  20.358716
pair_coeff 5  10 wf/cut 0.154522 6.477801 1 2  19.433402
pair_coeff 5  11 wf/cut 0.157232 6.644607 1 2  19.933820
pair_coeff 5  12 wf/cut 0.251957 6.558280 1 2  19.674840
pair_coeff 5  13 wf/cut 0.691657 6.952551 1 2  20.857653
pair_coeff 5  14 wf/cut 0.544942 6.734245 1 2  20.202735
pair_coeff 5  15 wf/cut 0.182533 6.121907 1 2  18.365722
pair_coeff 5  16 wf/cut 0.124237 6.588371 1 2  19.765114
pair_coeff 5  17 wf/cut 0.248657 6.381028 1 2  19.143083
pair_coeff 5  18 wf/cut 0.191071 6.319851 1 2  18.959553
pair_coeff 5  19 wf/cut 0.186388 6.278276 1 2  18.834827
pair_coeff 5  20 wf/cut 0.151930 6.644914 1 2  19.934743
pair_coeff 5  21 wf/cut 0.601916 7.639526 1 3  22.918577
pair_coeff 5  22 wf/cut 0.424916 7.529526 1 3  22.588577
pair_coeff 5  23 wf/cut 0.605916 7.674526 1 3  23.023577
pair_coeff 5  24 wf/cut 0.394916 7.504526 1 3  22.513577
pair_coeff 5  25 wf/cut 0.179235 6.314546 0 2  19.171278
pair_coeff 5  26 wf/cut 0.122190 6.650994 0 2  19.259262
pair_coeff 5  27 wf/cut 0.181299 7.177521 0 2  19.239415
pair_coeff 5  28 wf/cut 0.112009 6.614177 0 2  20.417580
pair_coeff 5  29 wf/cut 0.112009 6.614177 0 2  20.417580
pair_coeff 5  30 wf/cut 0.145202 6.266548 0 2  20.061513
pair_coeff 5  31 wf/cut 0.140042 6.175190 0 2  19.323287
pair_coeff 5  32 wf/cut 0.063680 6.747302 0 2  19.996002
pair_coeff 5  33 wf/cut 0.122457 6.625800 0 2  20.104771
pair_coeff 5  34 wf/cut 0.054131 6.719150 0 4  20.506000
pair_coeff 5  35 wf/cut 0.112684 6.286672 0 2  21.152308
pair_coeff 5  36 wf/cut 0.120823 6.123354 0 2  20.168416
pair_coeff 5  37 wf/cut 0.167478 6.815136 0 2  20.481816
pair_coeff 5  38 wf/cut 0.108092 6.322403 0 2  19.904506
pair_coeff 5  39 wf/cut 0.126627 6.525134 0 2  19.175065
pair_coeff 5  40 wf/cut 0.083392 6.304925 0 2  19.996137
pair_coeff 5  41 wf/cut 0.065998 6.437390 0 2  19.551641
pair_coeff 5  42 wf/cut 0.106474 6.813181 0 2  19.975126
pair_coeff 5  43 wf/cut 0.120823 6.599168 0 2  19.883894
pair_coeff 5  44 wf/cut 0.130268 6.651564 0 2  19.289460
pair_coeff 5  45 wf/cut 0.108092 6.322403 0 2  19.904506
pair_coeff 5  46 wf/cut 0.167478 6.815136 0 2  20.481816
pair_coeff 5  47 wf/cut 0.151824 7.422338 0 2  19.320813
pair_coeff 5  48 wf/cut 0.108936 6.339862 0 2  20.303167
pair_coeff 5  49 wf/cut 0.049394 6.767644 0 4  20.376366
pair_coeff 5  50 wf/cut 0.108092 6.322403 0 2  19.904506
pair_coeff 5  51 wf/cut 0.049394 6.767644 0 4  20.376366
pair_coeff 5  52 wf/cut 0.176104 6.552184 0 2  19.496028
pair_coeff 5  53 wf/cut 0.123564 6.323694 0 2  19.790699
pair_coeff 5  54 wf/cut 0.118302 6.598099 0 2  20.057975
pair_coeff 5  55 wf/cut 0.113487 6.335932 0 2  19.167906
pair_coeff 5  56 wf/cut 0.056826 6.774908 0 2  20.402840
pair_coeff 5  57 wf/cut 0.056826 6.774908 0 2  20.402840
pair_coeff 5  58 wf/cut 0.111684 6.431426 0 2  20.334037
pair_coeff 5  59 wf/cut 0.126783 6.248560 0 2  20.556410
pair_coeff 5  60 wf/cut 0.165043 6.452441 0 2  20.356476
pair_coeff 5  61 wf/cut 0.083392 6.304925 0 2  19.996137
pair_coeff 5  62 wf/cut 0.128250 6.667926 0 2  19.768891
pair_coeff 6  6  wf/cut 0.049480 5.270074 1 2  15.810221
pair_coeff 6  7  wf/cut 0.078130 5.545104 1 2  16.635312
pair_coeff 6  8  wf/cut 0.082535 5.721983 1 2  17.165950
pair_coeff 6  9  wf/cut 0.234333 5.995375 1 2  17.986125
pair_coeff 6  10 wf/cut 0.027529 5.714673 1 2  17.144019
pair_coeff 6  11 wf/cut 0.030239 5.879183 1 2  17.637550
pair_coeff 6  12 wf/cut 0.124964 5.769878 1 2  17.309635
pair_coeff 6  13 wf/cut 0.299889 6.161220 1 2  18.483659
pair_coeff 6  14 wf/cut 0.220561 5.943524 1 2  17.830573
pair_coeff 6  15 wf/cut 0.055540 5.341187 1 2  16.023560
pair_coeff 6  16 wf/cut 0.208449 5.797766 1 2  17.393298
pair_coeff 6  17 wf/cut 0.121665 5.592677 1 2  16.778030
pair_coeff 6  18 wf/cut 0.064078 5.537384 1 2  16.612152
pair_coeff 6  19 wf/cut 0.059395 5.496868 1 2  16.490603
pair_coeff 6  20 wf/cut 0.024937 5.887264 1 2  17.661792
pair_coeff 6  21 wf/cut 0.280740 6.855037 1 3  20.565110
pair_coeff 6  22 wf/cut 0.192240 6.745037 1 3  20.235110
pair_coeff 6  23 wf/cut 0.282740 6.890037 1 3  20.670110
pair_coeff 6  24 wf/cut 0.177240 6.720037 1 3  20.160110
pair_coeff 6  25 wf/cut 0.132960 5.530057 0 2  16.817811
pair_coeff 6  26 wf/cut 0.090643 5.866505 0 2  16.905795
pair_coeff 6  27 wf/cut 0.134490 6.393032 0 2  16.885948
pair_coeff 6  28 wf/cut 0.083090 5.829688 0 2  18.064113
pair_coeff 6  29 wf/cut 0.083090 5.829688 0 2  18.064113
pair_coeff 6  30 wf/cut 0.107713 5.482059 0 2  17.708047
pair_coeff 6  31 wf/cut 0.103885 5.390701 0 2  16.969820
pair_coeff 6  32 wf/cut 0.047239 5.962813 0 2  17.642535
pair_coeff 6  33 wf/cut 0.090840 5.841311 0 2  17.751305
pair_coeff 6  34 wf/cut 0.040155 5.934661 0 4  18.152534
pair_coeff 6  35 wf/cut 0.083591 5.502183 0 2  18.798842
pair_coeff 6  36 wf/cut 0.089629 5.338866 0 2  17.814950
pair_coeff 6  37 wf/cut 0.124238 6.030647 0 2  18.128350
pair_coeff 6  38 wf/cut 0.080184 5.537915 0 2  17.551040
pair_coeff 6  39 wf/cut 0.093934 5.740645 0 2  16.821598
pair_coeff 6  40 wf/cut 0.061861 5.520436 0 2  17.642671
pair_coeff 6  41 wf/cut 0.048958 5.652901 0 2  17.198174
pair_coeff 6  42 wf/cut 0.078984 6.028692 0 2  17.621660
pair_coeff 6  43 wf/cut 0.089629 5.814679 0 2  17.530428
pair_coeff 6  44 wf/cut 0.096635 5.867075 0 2  16.935993
pair_coeff 6  45 wf/cut 0.080184 5.537915 0 2  17.551040
pair_coeff 6  46 wf/cut 0.124238 6.030647 0 2  18.128350
pair_coeff 6  47 wf/cut 0.112626 6.637849 0 2  16.967347
pair_coeff 6  48 wf/cut 0.080810 5.555373 0 2  17.949701
pair_coeff 6  49 wf/cut 0.036642 5.983156 0 4  18.022900
pair_coeff 6  50 wf/cut 0.080184 5.537915 0 2  17.551040
pair_coeff 6  51 wf/cut 0.036642 5.983156 0 4  18.022900
pair_coeff 6  52 wf/cut 0.130637 5.767695 0 2  17.142561
pair_coeff 6  53 wf/cut 0.091662 5.539205 0 2  17.437233
pair_coeff 6  54 wf/cut 0.087759 5.813611 0 2  17.704509
pair_coeff 6  55 wf/cut 0.084186 5.551443 0 2  16.814439
pair_coeff 6  56 wf/cut 0.042154 5.990419 0 2  18.049374
pair_coeff 6  57 wf/cut 0.042154 5.990419 0 2  18.049374
pair_coeff 6  58 wf/cut 0.082849 5.646937 0 2  17.980570
pair_coeff 6  59 wf/cut 0.094049 5.464072 0 2  18.202944
pair_coeff 6  60 wf/cut 0.122432 5.667953 0 2  18.003010
pair_coeff 6  61 wf/cut 0.061861 5.520436 0 2  17.642671
pair_coeff 6  62 wf/cut 0.095138 5.883438 0 2  17.415425
pair_coeff 7  7  wf/cut 0.079096 5.823522 1 2  17.470565
pair_coeff 7  8  wf/cut 0.082359 6.000582 1 2  18.001747
pair_coeff 7  9  wf/cut 0.262983 6.276474 1 2  18.829421
pair_coeff 7  10 wf/cut 0.056178 5.978735 1 2  17.936206
pair_coeff 7  11 wf/cut 0.058888 6.145089 1 2  18.435268
pair_coeff 7  12 wf/cut 0.153614 6.050040 1 2  18.150121
pair_coeff 7  13 wf/cut 0.328538 6.442440 1 2  19.327321
pair_coeff 7  14 wf/cut 0.249211 6.224557 1 2  18.673672
pair_coeff 7  15 wf/cut 0.084189 5.617299 1 2  16.851896
pair_coeff 7  16 wf/cut 0.001758 6.078759 1 2  18.236278
pair_coeff 7  17 wf/cut 0.150314 5.872796 1 2  17.618389
pair_coeff 7  18 wf/cut 0.092728 5.814546 1 2  17.443637
pair_coeff 7  19 wf/cut 0.088045 5.773404 1 2  17.320213
pair_coeff 7  20 wf/cut 0.053587 6.146988 1 2  18.440965
pair_coeff 7  21 wf/cut 0.295548 7.131761 1 3  21.395283
pair_coeff 7  22 wf/cut 0.207048 7.021761 1 3  21.065283
pair_coeff 7  23 wf/cut 0.297548 7.166761 1 3  21.500283
pair_coeff 7  24 wf/cut 0.192048 6.996761 1 3  20.990283
pair_coeff 7  25 wf/cut 0.168106 5.806781 0 2  17.647984
pair_coeff 7  26 wf/cut 0.114603 6.143229 0 2  17.735968
pair_coeff 7  27 wf/cut 0.170041 6.669756 0 2  17.716121
pair_coeff 7  28 wf/cut 0.105054 6.106412 0 2  18.894286
pair_coeff 7  29 wf/cut 0.105054 6.106412 0 2  18.894286
pair_coeff 7  30 wf/cut 0.136185 5.758783 0 2  18.538219
pair_coeff 7  31 wf/cut 0.131346 5.667425 0 2  17.799993
pair_coeff 7  32 wf/cut 0.059726 6.239537 0 2  18.472708
pair_coeff 7  33 wf/cut 0.114853 6.118035 0 2  18.581477
pair_coeff 7  34 wf/cut 0.050769 6.211385 0 4  18.982706
pair_coeff 7  35 wf/cut 0.105687 5.778907 0 2  19.629014
pair_coeff 7  36 wf/cut 0.113321 5.615590 0 2  18.645122
pair_coeff 7  37 wf/cut 0.157079 6.307371 0 2  18.958522
pair_coeff 7  38 wf/cut 0.101380 5.814639 0 2  18.381212
pair_coeff 7  39 wf/cut 0.118764 6.017369 0 2  17.651771
pair_coeff 7  40 wf/cut 0.078213 5.797160 0 2  18.472843
pair_coeff 7  41 wf/cut 0.061899 5.929625 0 2  18.028347
pair_coeff 7  42 wf/cut 0.099863 6.305417 0 2  18.451832
pair_coeff 7  43 wf/cut 0.113321 6.091403 0 2  18.360600
pair_coeff 7  44 wf/cut 0.122179 6.143799 0 2  17.766166
pair_coeff 7  45 wf/cut 0.101380 5.814639 0 2  18.381212
pair_coeff 7  46 wf/cut 0.157079 6.307371 0 2  18.958522
pair_coeff 7  47 wf/cut 0.142397 6.914573 0 2  17.797519
pair_coeff 7  48 wf/cut 0.102171 5.832097 0 2  18.779873
pair_coeff 7  49 wf/cut 0.046327 6.259880 0 4  18.853072
pair_coeff 7  50 wf/cut 0.101380 5.814639 0 2  18.381212
pair_coeff 7  51 wf/cut 0.046327 6.259880 0 4  18.853072
pair_coeff 7  52 wf/cut 0.165169 6.044419 0 2  17.972734
pair_coeff 7  53 wf/cut 0.115892 5.815930 0 2  18.267405
pair_coeff 7  54 wf/cut 0.110956 6.090335 0 2  18.534681
pair_coeff 7  55 wf/cut 0.106440 5.828167 0 2  17.644612
pair_coeff 7  56 wf/cut 0.053297 6.267143 0 2  18.879546
pair_coeff 7  57 wf/cut 0.053297 6.267143 0 2  18.879546
pair_coeff 7  58 wf/cut 0.104749 5.923661 0 2  18.810743
pair_coeff 7  59 wf/cut 0.118910 5.740796 0 2  19.033116
pair_coeff 7  60 wf/cut 0.154795 5.944677 0 2  18.833182
pair_coeff 7  61 wf/cut 0.078213 5.797160 0 2  18.472843
pair_coeff 7  62 wf/cut 0.120287 6.160162 0 2  18.245597
pair_coeff 8  8  wf/cut 0.085622 6.177670 1 2  18.533011
pair_coeff 8  9  wf/cut 0.267388 6.453698 1 2  19.361095
pair_coeff 8  10 wf/cut 0.060583 6.155039 1 2  18.465116
pair_coeff 8  11 wf/cut 0.063293 6.321457 1 2  18.964372
pair_coeff 8  12 wf/cut 0.158019 6.227214 1 2  18.681642
pair_coeff 8  13 wf/cut 0.332943 6.619692 1 2  19.859075
pair_coeff 8  14 wf/cut 0.253616 6.401799 1 2  19.205397
pair_coeff 8  15 wf/cut 0.088594 5.794220 1 2  17.382659
pair_coeff 8  16 wf/cut 0.001791 6.256001 1 2  18.768002
pair_coeff 8  17 wf/cut 0.154719 6.049989 1 2  18.149967
pair_coeff 8  18 wf/cut 0.097133 5.991525 1 2  17.974575
pair_coeff 8  19 wf/cut 0.092450 5.950365 1 2  17.851094
pair_coeff 8  20 wf/cut 0.057992 6.323326 1 2  18.969977
pair_coeff 8  21 wf/cut 0.298811 7.308835 1 3  21.926505
pair_coeff 8  22 wf/cut 0.210311 7.198835 1 3  21.596505
pair_coeff 8  23 wf/cut 0.300811 7.343835 1 3  22.031505
pair_coeff 8  24 wf/cut 0.195311 7.173835 1 3  21.521505
pair_coeff 8  25 wf/cut 0.174903 5.983856 0 2  18.179207
pair_coeff 8  26 wf/cut 0.119237 6.320303 0 2  18.267190
pair_coeff 8  27 wf/cut 0.176917 6.846831 0 2  18.247344
pair_coeff 8  28 wf/cut 0.109301 6.283486 0 2  19.425508
pair_coeff 8  29 wf/cut 0.109301 6.283486 0 2  19.425508
pair_coeff 8  30 wf/cut 0.141692 5.935858 0 2  19.069442
pair_coeff 8  31 wf/cut 0.136657 5.844500 0 2  18.331215
pair_coeff 8  32 wf/cut 0.062141 6.416612 0 2  19.003931
pair_coeff 8  33 wf/cut 0.119497 6.295109 0 2  19.112700
pair_coeff 8  34 wf/cut 0.052822 6.388459 0 4  19.513929
pair_coeff 8  35 wf/cut 0.109960 5.955981 0 2  20.160237
pair_coeff 8  36 wf/cut 0.117903 5.792664 0 2  19.176345
pair_coeff 8  37 wf/cut 0.163430 6.484445 0 2  19.489745
pair_coeff 8  38 wf/cut 0.105479 5.991713 0 2  18.912435
pair_coeff 8  39 wf/cut 0.123566 6.194444 0 2  18.182993
pair_coeff 8  40 wf/cut 0.081376 5.974235 0 2  19.004066
pair_coeff 8  41 wf/cut 0.064402 6.106700 0 2  18.559569
pair_coeff 8  42 wf/cut 0.103901 6.482491 0 2  18.983055
pair_coeff 8  43 wf/cut 0.117903 6.268478 0 2  18.891823
pair_coeff 8  44 wf/cut 0.127119 6.320873 0 2  18.297388
pair_coeff 8  45 wf/cut 0.105479 5.991713 0 2  18.912435
pair_coeff 8  46 wf/cut 0.163430 6.484445 0 2  19.489745
pair_coeff 8  47 wf/cut 0.148155 7.091647 0 2  18.328742
pair_coeff 8  48 wf/cut 0.106303 6.009172 0 2  19.311096
pair_coeff 8  49 wf/cut 0.048201 6.436954 0 4  19.384295
pair_coeff 8  50 wf/cut 0.105479 5.991713 0 2  18.912435
pair_coeff 8  51 wf/cut 0.048201 6.436954 0 4  19.384295
pair_coeff 8  52 wf/cut 0.171848 6.221493 0 2  18.503957
pair_coeff 8  53 wf/cut 0.120578 5.993004 0 2  18.798628
pair_coeff 8  54 wf/cut 0.115443 6.267409 0 2  19.065904
pair_coeff 8  55 wf/cut 0.110744 6.005242 0 2  18.175834
pair_coeff 8  56 wf/cut 0.055452 6.444218 0 2  19.410769
pair_coeff 8  57 wf/cut 0.055452 6.444218 0 2  19.410769
pair_coeff 8  58 wf/cut 0.108985 6.100735 0 2  19.341966
pair_coeff 8  59 wf/cut 0.123718 5.917870 0 2  19.564339
pair_coeff 8  60 wf/cut 0.161054 6.121751 0 2  19.364405
pair_coeff 8  61 wf/cut 0.081376 5.974235 0 2  19.004066
pair_coeff 8  62 wf/cut 0.125151 6.337236 0 2  18.776820
pair_coeff 9  9  wf/cut 0.419186 6.733634 1 2  20.200902
pair_coeff 9  10 wf/cut 0.212382 6.423549 1 2  19.270647
pair_coeff 9  11 wf/cut 0.215092 6.590388 1 2  19.771164
pair_coeff 9  12 wf/cut 0.309817 6.505249 1 2  19.515747
pair_coeff 9  13 wf/cut 0.484741 6.900050 1 2  20.700151
pair_coeff 9  14 wf/cut 0.405414 6.681589 1 2  20.044767
pair_coeff 9  15 wf/cut 0.240393 6.068281 1 2  18.204842
pair_coeff 9  16 wf/cut 0.393302 6.535691 1 2  19.607074
pair_coeff 9  17 wf/cut 0.306517 6.327983 1 2  18.983948
pair_coeff 9  18 wf/cut 0.248931 6.266295 1 2  18.798886
pair_coeff 9  19 wf/cut 0.244248 6.224651 1 2  18.673952
pair_coeff 9  20 wf/cut 0.209790 6.590551 1 2  19.771652
pair_coeff 9  21 wf/cut 0.465593 7.586817 1 3  22.760451
pair_coeff 9  22 wf/cut 0.377093 7.476817 1 3  22.430451
pair_coeff 9  23 wf/cut 0.467593 7.621817 1 3  22.865451
pair_coeff 9  24 wf/cut 0.362093 7.451817 1 3  22.355451
pair_coeff 9  25 wf/cut 0.386998 6.261838 0 2  19.013152
pair_coeff 9  26 wf/cut 0.263828 6.598285 0 2  19.101136
pair_coeff 9  27 wf/cut 0.391453 7.124813 0 2  19.081289
pair_coeff 9  28 wf/cut 0.241845 6.561468 0 2  20.259454
pair_coeff 9  29 wf/cut 0.241845 6.561468 0 2  20.259454
pair_coeff 9  30 wf/cut 0.313514 6.213840 0 2  19.903388
pair_coeff 9  31 wf/cut 0.302373 6.122481 0 2  19.165161
pair_coeff 9  32 wf/cut 0.137495 6.694594 0 2  19.837876
pair_coeff 9  33 wf/cut 0.264403 6.573091 0 2  19.946645
pair_coeff 9  34 wf/cut 0.116877 6.666441 0 4  20.347874
pair_coeff 9  35 wf/cut 0.243302 6.233963 0 2  20.994182
pair_coeff 9  36 wf/cut 0.260877 6.070646 0 2  20.010290
pair_coeff 9  37 wf/cut 0.361612 6.762427 0 2  20.323691
pair_coeff 9  38 wf/cut 0.233388 6.269695 0 2  19.746380
pair_coeff 9  39 wf/cut 0.273407 6.472426 0 2  19.016939
pair_coeff 9  40 wf/cut 0.180056 6.252216 0 2  19.838012
pair_coeff 9  41 wf/cut 0.142499 6.384682 0 2  19.393515
pair_coeff 9  42 wf/cut 0.229895 6.760473 0 2  19.817001
pair_coeff 9  43 wf/cut 0.260877 6.546460 0 2  19.725769
pair_coeff 9  44 wf/cut 0.281269 6.598855 0 2  19.131334
pair_coeff 9  45 wf/cut 0.233388 6.269695 0 2  19.746380
pair_coeff 9  46 wf/cut 0.361612 6.762427 0 2  20.323691