# MPiPi Settings File

# Charges
set type 3   charge 0.750000
set type 5   charge 0.750000
set type 7   charge -0.750000
set type 8   charge -0.750000
set type 16  charge 0.375000
set type 21  charge -0.750000
set type 22  charge -0.750000
set type 23  charge -0.750000
set type 24  charge -0.750000
set type 25  charge -0.120000
set type 26  charge -0.169000
set type 27  charge -0.142000
set type 28  charge 0.083000
set type 29  charge -0.052000
set type 30  charge -0.046000
set type 31  charge 0.162000
set type 32  charge 0.005000
set type 33  charge -0.450000
set type 34  charge -0.030000
set type 35  charge 0.005000
set type 36  charge -0.031000
set type 37  charge -0.270000
set type 38  charge 0.005000
set type 39  charge 0.162000
set type 40  charge 0.044000
set type 41  charge 0.123000
set type 42  charge 0.045000
set type 43  charge 0.005000
set type 44  charge 0.045000
set type 45  charge -0.454000
set type 46  charge -0.206000
set type 47  charge -0.099000
set type 48  charge -0.059000
set type 49  charge 0.102000
set type 50  charge -0.195000

# Bonds
bond_coeff 1   9.600000 3.810000
bond_coeff 2   9.600000 5.000000
bond_coeff 3   9.600000 6.058000
bond_coeff 4   9.600000 4.064000
bond_coeff 5   9.600000 3.509000
bond_coeff 6   9.600000 4.225000
bond_coeff 7   9.600000 4.810000
bond_coeff 8   9.600000 6.570000
bond_coeff 9   9.600000 6.217000
bond_coeff 10  9.600000 6.225000
bond_coeff 11  9.600000 7.461000
bond_coeff 12  9.600000 8.141000
bond_coeff 13  9.600000 7.305000
bond_coeff 14  9.600000 6.535000
bond_coeff 15  9.600000 7.976000
bond_coeff 16  9.600000 5.688000

# Pair Style
pair_style  hybrid/overlay wf/cut 25.0 coul/debye 0.126 0.0

# Pairwise Interactions
pair_coeff 1  1  wf/cut 0.039564 6.467951 1 2  19.403853
pair_coeff 1  2  wf/cut 0.068017 5.576178 1 2  16.728535
pair_coeff 1  3  wf/cut 0.032686 6.567784 1 2  19.703351
pair_coeff 1  4  wf/cut 0.035161 6.178228 1 2  18.534684
pair_coeff 1  5  wf/cut 0.171515 6.643965 1 2  19.931895
pair_coeff 1  6  wf/cut 0.044522 5.868502 1 2  17.605506
pair_coeff 1  7  wf/cut 0.073172 6.141460 1 2  18.424379
pair_coeff 1  8  wf/cut 0.077577 6.318177 1 2  18.954530
pair_coeff 1  9  wf/cut 0.229375 6.590037 1 2  19.770112
pair_coeff 1  10 wf/cut 0.022571 6.320572 1 2  18.961715
pair_coeff 1  11 wf/cut 0.025281 6.483444 1 2  19.450331
pair_coeff 1  12 wf/cut 0.120006 6.365188 1 2  19.095564
pair_coeff 1  13 wf/cut 0.294931 6.755728 1 2  20.267185
pair_coeff 1  14 wf/cut 0.215603 6.538209 1 2  19.614626
pair_coeff 1  15 wf/cut 0.050582 5.938941 1 2  17.816822
pair_coeff 1  16 wf/cut 0.203491 6.392507 1 2  19.177522
pair_coeff 1  17 wf/cut 0.116706 6.188018 1 2  18.564055
pair_coeff 1  18 wf/cut 0.059120 6.134464 1 2  18.403392
pair_coeff 1  19 wf/cut 0.054437 6.094295 1 2  18.282884
pair_coeff 1  20 wf/cut 0.019979 6.496393 1 2  19.489179
pair_coeff 1  21 wf/cut 0.275782 7.453975 1 3  22.361926
pair_coeff 1  22 wf/cut 0.187282 7.343975 1 3  22.031926
pair_coeff 1  23 wf/cut 0.277782 7.488975 1 3  22.466926
pair_coeff 1  24 wf/cut 0.172282 7.318975 1 3  21.956926
pair_coeff 1  25 wf/cut 0.102754 7.099210 1 3  21.460864
pair_coeff 1  26 wf/cut 0.106588 6.326731 1 3  19.101632
pair_coeff 1  27 wf/cut 0.039762 6.320014 1 2  20.243335
pair_coeff 1  28 wf/cut 0.040682 6.373212 1 3  20.742269
pair_coeff 1  29 wf/cut 0.100817 6.289183 1 3  20.173451
pair_coeff 1  30 wf/cut 0.075175 6.269262 1 2  20.242905
pair_coeff 1  31 wf/cut 0.055424 6.333338 1 2  20.339401
pair_coeff 1  32 wf/cut 0.037959 6.249723 1 2  19.587265
pair_coeff 1  33 wf/cut 0.115471 7.299570 1 3  21.524061
pair_coeff 1  34 wf/cut 0.085769 6.127108 1 3  20.248118
pair_coeff 1  35 wf/cut 0.059347 6.238807 1 3  19.780110
pair_coeff 1  36 wf/cut 0.118839 6.319038 1 2  19.066667
pair_coeff 1  37 wf/cut 0.104893 6.389469 1 3  19.472415
pair_coeff 1  38 wf/cut 0.037959 6.249723 1 2  19.587265
pair_coeff 1  39 wf/cut 0.055424 6.333338 1 2  20.339401
pair_coeff 1  40 wf/cut 0.102385 6.233977 1 2  20.137134
pair_coeff 1  41 wf/cut 0.071762 6.233583 1 2  20.252760
pair_coeff 1  42 wf/cut 0.067306 6.280101 1 4  20.196192
pair_coeff 1  43 wf/cut 0.037959 6.249723 1 2  19.587265
pair_coeff 1  44 wf/cut 0.067306 6.280101 1 4  20.196192
pair_coeff 1  45 wf/cut 0.119187 7.193294 1 2  21.588977
pair_coeff 1  46 wf/cut 0.118753 6.299752 1 3  20.191651
pair_coeff 1  47 wf/cut 0.080151 6.346366 1 3  20.177073
pair_coeff 1  48 wf/cut 0.052967 6.417582 1 3  20.820465
pair_coeff 1  49 wf/cut 0.043003 6.308175 1 3  20.637131
pair_coeff 1  50 wf/cut 0.092630 7.247072 1 3  20.200475
pair_coeff 2  2  wf/cut 0.096470 4.695110 1 2  14.085331
pair_coeff 2  3  wf/cut 0.061139 5.671338 1 2  17.014015
pair_coeff 2  4  wf/cut 0.063614 5.284425 1 2  15.853275
pair_coeff 2  5  wf/cut 0.199968 5.766386 1 2  17.299159
pair_coeff 2  6  wf/cut 0.072975 4.980135 1 2  14.940404
pair_coeff 2  7  wf/cut 0.101625 5.259255 1 2  15.777764
pair_coeff 2  8  wf/cut 0.106030 5.436375 1 2  16.309124
pair_coeff 2  9  wf/cut 0.257828 5.713165 1 2  17.139496
pair_coeff 2  10 wf/cut 0.051024 5.412393 1 2  16.237180
pair_coeff 2  11 wf/cut 0.053734 5.578930 1 2  16.736791
pair_coeff 2  12 wf/cut 0.148459 5.486299 1 2  16.458898
pair_coeff 2  13 wf/cut 0.323384 5.879238 1 2  17.637714
pair_coeff 2  14 wf/cut 0.244056 5.661219 1 2  16.983656
pair_coeff 2  15 wf/cut 0.079035 5.052525 1 2  15.157574
pair_coeff 2  16 wf/cut 0.231944 5.515412 1 2  16.546235
pair_coeff 2  17 wf/cut 0.145159 5.309016 1 2  15.927049
pair_coeff 2  18 wf/cut 0.087573 5.249991 1 2  15.749972
pair_coeff 2  19 wf/cut 0.082890 5.208723 1 2  15.626168
pair_coeff 2  20 wf/cut 0.048432 5.580329 1 2  16.740988
pair_coeff 2  21 wf/cut 0.304235 6.567555 1 3  19.702665
pair_coeff 2  22 wf/cut 0.215735 6.457555 1 3  19.372665
pair_coeff 2  23 wf/cut 0.306235 6.602555 1 3  19.807665
pair_coeff 2  24 wf/cut 0.200735 6.432555 1 3  19.297665
pair_coeff 2  25 wf/cut 0.160451 6.212790 1 3  18.801603
pair_coeff 2  26 wf/cut 0.166438 5.440311 1 3  16.442371
pair_coeff 2  27 wf/cut 0.062089 5.433593 1 2  17.584074
pair_coeff 2  28 wf/cut 0.063526 5.486792 1 3  18.083008
pair_coeff 2  29 wf/cut 0.157428 5.402763 1 3  17.514190
pair_coeff 2  30 wf/cut 0.117387 5.382841 1 2  17.583644
pair_coeff 2  31 wf/cut 0.086546 5.446918 1 2  17.680140
pair_coeff 2  32 wf/cut 0.059273 5.363302 1 2  16.928004
pair_coeff 2  33 wf/cut 0.180309 6.413150 1 3  18.864800
pair_coeff 2  34 wf/cut 0.133929 5.240688 1 3  17.588857
pair_coeff 2  35 wf/cut 0.092671 5.352387 1 3  17.120850
pair_coeff 2  36 wf/cut 0.185569 5.432617 1 2  16.407407
pair_coeff 2  37 wf/cut 0.163792 5.503048 1 3  16.813154
pair_coeff 2  38 wf/cut 0.059273 5.363302 1 2  16.928004
pair_coeff 2  39 wf/cut 0.086546 5.446918 1 2  17.680140
pair_coeff 2  40 wf/cut 0.159876 5.347556 1 2  17.477873
pair_coeff 2  41 wf/cut 0.112057 5.347162 1 2  17.593499
pair_coeff 2  42 wf/cut 0.105099 5.393681 1 4  17.536931
pair_coeff 2  43 wf/cut 0.059273 5.363302 1 2  16.928004
pair_coeff 2  44 wf/cut 0.105099 5.393681 1 4  17.536931
pair_coeff 2  45 wf/cut 0.186113 6.306873 1 2  18.929716
pair_coeff 2  46 wf/cut 0.185435 5.413331 1 3  17.532390
pair_coeff 2  47 wf/cut 0.125157 5.459946 1 3  17.517812
pair_coeff 2  48 wf/cut 0.082708 5.531162 1 3  18.161205
pair_coeff 2  49 wf/cut 0.067150 5.421755 1 3  17.977870
pair_coeff 2  50 wf/cut 0.144643 6.360652 1 3  17.541214
pair_coeff 3  3  wf/cut 0.019117 6.671341 1 2  20.014022
pair_coeff 3  4  wf/cut 0.028283 6.279400 1 2  18.838200
pair_coeff 3  5  wf/cut 0.121938 6.738192 1 2  20.214576
pair_coeff 3  6  wf/cut 0.037644 5.966686 1 2  17.900059
pair_coeff 3  7  wf/cut 0.000493 6.236987 1 2  18.710962
pair_coeff 3  8  wf/cut 0.000526 6.413575 1 2  19.240725
pair_coeff 3  9  wf/cut 0.102701 6.684083 1 2  20.052250
pair_coeff 3  10 wf/cut 0.015693 6.433541 1 2  19.300623
pair_coeff 3  11 wf/cut 0.018403 6.592558 1 2  19.777673
pair_coeff 3  12 wf/cut 0.113128 6.459694 1 2  19.379081
pair_coeff 3  13 wf/cut 0.104796 6.849685 1 2  20.549056
pair_coeff 3  14 wf/cut 0.115276 6.632280 1 2  19.896841
pair_coeff 3  15 wf/cut 0.043704 6.036180 1 2  18.108539
pair_coeff 3  16 wf/cut 0.087370 6.486603 1 2  19.459809
pair_coeff 3  17 wf/cut 0.109828 6.282546 1 2  18.847638
pair_coeff 3  18 wf/cut 0.052242 6.231062 1 2  18.693185
pair_coeff 3  19 wf/cut 0.047559 6.191154 1 2  18.573461
pair_coeff 3  20 wf/cut 0.013101 6.617996 1 2  19.853989
pair_coeff 3  21 wf/cut 0.159335 7.555670 1 3  22.667011
pair_coeff 3  22 wf/cut 0.106235 7.445670 1 3  22.337011
pair_coeff 3  23 wf/cut 0.160535 7.590670 1 3  22.772011
pair_coeff 3  24 wf/cut 0.097235 7.420670 1 3  22.262011
pair_coeff 3  25 wf/cut 0.071426 7.200905 1 3  21.765948
pair_coeff 3  26 wf/cut 0.074091 6.428426 1 3  19.406717
pair_coeff 3  27 wf/cut 0.027639 6.421709 1 2  20.548420
pair_coeff 3  28 wf/cut 0.028279 6.474907 1 3  21.047353
pair_coeff 3  29 wf/cut 0.070080 6.390878 1 3  20.478535
pair_coeff 3  30 wf/cut 0.052256 6.370956 1 2  20.547989
pair_coeff 3  31 wf/cut 0.038526 6.435033 1 2  20.644485
pair_coeff 3  32 wf/cut 0.026386 6.351418 1 2  19.892349
pair_coeff 3  33 wf/cut 0.080266 7.401265 1 3  21.829145
pair_coeff 3  34 wf/cut 0.059620 6.228803 1 3  20.553202
pair_coeff 3  35 wf/cut 0.041253 6.340502 1 3  20.085195
pair_coeff 3  36 wf/cut 0.082607 6.420732 1 2  19.371752
pair_coeff 3  37 wf/cut 0.072913 6.491163 1 3  19.777500
pair_coeff 3  38 wf/cut 0.026386 6.351418 1 2  19.892349
pair_coeff 3  39 wf/cut 0.038526 6.435033 1 2  20.644485
pair_coeff 3  40 wf/cut 0.071170 6.335671 1 2  20.442219
pair_coeff 3  41 wf/cut 0.049883 6.335278 1 2  20.557844
pair_coeff 3  42 wf/cut 0.046786 6.381796 1 4  20.501276
pair_coeff 3  43 wf/cut 0.026386 6.351418 1 2  19.892349
pair_coeff 3  44 wf/cut 0.046786 6.381796 1 4  20.501276
pair_coeff 3  45 wf/cut 0.082850 7.294988 1 2  21.894061
pair_coeff 3  46 wf/cut 0.082548 6.401446 1 3  20.496736
pair_coeff 3  47 wf/cut 0.055715 6.448061 1 3  20.482157
pair_coeff 3  48 wf/cut 0.036818 6.519277 1 3  21.125550
pair_coeff 3  49 wf/cut 0.029892 6.409870 1 3  20.942216
pair_coeff 3  50 wf/cut 0.064389 7.348767 1 3  20.505560
pair_coeff 4  4  wf/cut 0.030758 5.889062 1 2  17.667185
pair_coeff 4  5  wf/cut 0.167112 6.352016 1 2  19.056047
pair_coeff 4  6  wf/cut 0.040119 5.577948 1 2  16.733843
pair_coeff 4  7  wf/cut 0.068769 5.849866 1 2  17.549599
pair_coeff 4  8  wf/cut 0.073174 6.026541 1 2  18.079624
pair_coeff 4  9  wf/cut 0.224972 6.298063 1 2  18.894189
pair_coeff 4  10 wf/cut 0.018168 6.036965 1 2  18.110896
pair_coeff 4  11 wf/cut 0.020878 6.198089 1 2  18.594267
pair_coeff 4  12 wf/cut 0.115603 6.073288 1 2  18.219864
pair_coeff 4  13 wf/cut 0.290527 6.463775 1 2  19.391326
pair_coeff 4  14 wf/cut 0.211200 6.246251 1 2  18.738753
pair_coeff 4  15 wf/cut 0.046179 5.648008 1 2  16.944023
pair_coeff 4  16 wf/cut 0.199088 6.100529 1 2  18.301586
pair_coeff 4  17 wf/cut 0.112303 5.896099 1 2  17.688298
pair_coeff 4  18 wf/cut 0.054717 5.843196 1 2  17.529588
pair_coeff 4  19 wf/cut 0.050034 5.803212 1 2  17.409635
pair_coeff 4  20 wf/cut 0.015576 6.214617 1 2  18.643851
pair_coeff 4  21 wf/cut 0.271379 7.164531 1 3  21.493592
pair_coeff 4  22 wf/cut 0.182879 7.054531 1 3  21.163592
pair_coeff 4  23 wf/cut 0.273379 7.199531 1 3  21.598592
pair_coeff 4  24 wf/cut 0.167879 7.029531 1 3  21.088592
pair_coeff 4  25 wf/cut 0.090600 6.809765 1 3  20.592530
pair_coeff 4  26 wf/cut 0.093980 6.037286 1 3  18.233298
pair_coeff 4  27 wf/cut 0.035059 6.030569 1 2  19.375001
pair_coeff 4  28 wf/cut 0.035870 6.083767 1 3  19.873935
pair_coeff 4  29 wf/cut 0.088892 5.999738 1 3  19.305117
pair_coeff 4  30 wf/cut 0.066283 5.979817 1 2  19.374571
pair_coeff 4  31 wf/cut 0.048868 6.043893 1 2  19.471067
pair_coeff 4  32 wf/cut 0.033469 5.960278 1 2  18.718931
pair_coeff 4  33 wf/cut 0.101812 7.010125 1 3  20.655727
pair_coeff 4  34 wf/cut 0.075624 5.837663 1 3  19.379784
pair_coeff 4  35 wf/cut 0.052327 5.949363 1 3  18.911777
pair_coeff 4  36 wf/cut 0.104782 6.029593 1 2  18.198334
pair_coeff 4  37 wf/cut 0.092486 6.100024 1 3  18.604081
pair_coeff 4  38 wf/cut 0.033469 5.960278 1 2  18.718931
pair_coeff 4  39 wf/cut 0.048868 6.043893 1 2  19.471067
pair_coeff 4  40 wf/cut 0.090274 5.944532 1 2  19.268800
pair_coeff 4  41 wf/cut 0.063273 5.944138 1 2  19.384426
pair_coeff 4  42 wf/cut 0.059345 5.990656 1 4  19.327858
pair_coeff 4  43 wf/cut 0.033469 5.960278 1 2  18.718931
pair_coeff 4  44 wf/cut 0.059345 5.990656 1 4  19.327858
pair_coeff 4  45 wf/cut 0.105089 6.903849 1 2  20.720643
pair_coeff 4  46 wf/cut 0.104707 6.010307 1 3  19.323317
pair_coeff 4  47 wf/cut 0.070671 6.056921 1 3  19.308739
pair_coeff 4  48 wf/cut 0.046702 6.128137 1 3  19.952132
pair_coeff 4  49 wf/cut 0.037916 6.018730 1 3  19.768797
pair_coeff 4  50 wf/cut 0.081673 6.957627 1 3  19.332141
pair_coeff 5  5  wf/cut 0.089916 6.839051 1 2  20.517153
pair_coeff 5  6  wf/cut 0.176473 6.049093 1 2  18.147279
pair_coeff 5  7  wf/cut 0.001522 6.329860 1 2  18.989581
pair_coeff 5  8  wf/cut 0.001554 6.507088 1 2  19.521264
pair_coeff 5  9  wf/cut 0.607820 6.786239 1 2  20.358716
pair_coeff 5  10 wf/cut 0.154522 6.477801 1 2  19.433402
pair_coeff 5  11 wf/cut 0.157232 6.644607 1 2  19.933820
pair_coeff 5  12 wf/cut 0.251957 6.558280 1 2  19.674840
pair_coeff 5  13 wf/cut 0.691657 6.952551 1 2  20.857653
pair_coeff 5  14 wf/cut 0.544942 6.734245 1 2  20.202735
pair_coeff 5  15 wf/cut 0.182533 6.121907 1 2  18.365722
pair_coeff 5  16 wf/cut 0.124237 6.588371 1 2  19.765114
pair_coeff 5  17 wf/cut 0.248657 6.381028 1 2  19.143083
pair_coeff 5  18 wf/cut 0.191071 6.319851 1 2  18.959553
pair_coeff 5  19 wf/cut 0.186388 6.278276 1 2  18.834827
pair_coeff 5  20 wf/cut 0.151930 6.644914 1 2  19.934743
pair_coeff 5  21 wf/cut 0.601916 7.639526 1 3  22.918577
pair_coeff 5  22 wf/cut 0.424916 7.529526 1 3  22.588577
pair_coeff 5  23 wf/cut 0.605916 7.674526 1 3  23.023577
pair_coeff 5  24 wf/cut 0.394916 7.504526 1 3  22.513577
pair_coeff 5  25 wf/cut 0.154905 7.284760 1 3  22.017514
pair_coeff 5  26 wf/cut 0.160685 6.512281 1 3  19.658283
pair_coeff 5  27 wf/cut 0.059942 6.505564 1 2  20.799986
pair_coeff 5  28 wf/cut 0.061330 6.558762 1 3  21.298919
pair_coeff 5  29 wf/cut 0.151986 6.474733 1 3  20.730101
pair_coeff 5  30 wf/cut 0.113329 6.454812 1 2  20.799555
pair_coeff 5  31 wf/cut 0.083554 6.518888 1 2  20.896051
pair_coeff 5  32 wf/cut 0.057224 6.435273 1 2  20.143915
pair_coeff 5  33 wf/cut 0.174076 7.485120 1 3  22.080711
pair_coeff 5  34 wf/cut 0.129300 6.312658 1 3  20.804768
pair_coeff 5  35 wf/cut 0.089468 6.424357 1 3  20.336761
pair_coeff 5  36 wf/cut 0.179155 6.504588 1 2  19.623318
pair_coeff 5  37 wf/cut 0.158130 6.575019 1 3  20.029065
pair_coeff 5  38 wf/cut 0.057224 6.435273 1 2  20.143915
pair_coeff 5  39 wf/cut 0.083554 6.518888 1 2  20.896051
pair_coeff 5  40 wf/cut 0.154349 6.419527 1 2  20.693785
pair_coeff 5  41 wf/cut 0.108183 6.419133 1 2  20.809410
pair_coeff 5  42 wf/cut 0.101466 6.465651 1 4  20.752842
pair_coeff 5  43 wf/cut 0.057224 6.435273 1 2  20.143915
pair_coeff 5  44 wf/cut 0.101466 6.465651 1 4  20.752842
pair_coeff 5  45 wf/cut 0.179680 7.378844 1 2  22.145627
pair_coeff 5  46 wf/cut 0.179025 6.485302 1 3  20.748301
pair_coeff 5  47 wf/cut 0.120831 6.531916 1 3  20.733723
pair_coeff 5  48 wf/cut 0.079849 6.603132 1 3  21.377116
pair_coeff 5  49 wf/cut 0.064829 6.493725 1 3  21.193782
pair_coeff 5  50 wf/cut 0.139643 7.432622 1 3  20.757126
pair_coeff 6  6  wf/cut 0.049480 5.270074 1 2  15.810221
pair_coeff 6  7  wf/cut 0.078130 5.545104 1 2  16.635312
pair_coeff 6  8  wf/cut 0.082535 5.721983 1 2  17.165950
pair_coeff 6  9  wf/cut 0.234333 5.995375 1 2  17.986125
pair_coeff 6  10 wf/cut 0.027529 5.714673 1 2  17.144019
pair_coeff 6  11 wf/cut 0.030239 5.879183 1 2  17.637550
pair_coeff 6  12 wf/cut 0.124964 5.769878 1 2  17.309635
pair_coeff 6  13 wf/cut 0.299889 6.161220 1 2  18.483659
pair_coeff 6  14 wf/cut 0.220561 5.943524 1 2  17.830573
pair_coeff 6  15 wf/cut 0.055540 5.341187 1 2  16.023560
pair_coeff 6  16 wf/cut 0.208449 5.797766 1 2  17.393298
pair_coeff 6  17 wf/cut 0.121665 5.592677 1 2  16.778030
pair_coeff 6  18 wf/cut 0.064078 5.537384 1 2  16.612152
pair_coeff 6  19 wf/cut 0.059395 5.496868 1 2  16.490603
pair_coeff 6  20 wf/cut 0.024937 5.887264 1 2  17.661792
pair_coeff 6  21 wf/cut 0.280740 6.855037 1 3  20.565110
pair_coeff 6  22 wf/cut 0.192240 6.745037 1 3  20.235110
pair_coeff 6  23 wf/cut 0.282740 6.890037 1 3  20.670110
pair_coeff 6  24 wf/cut 0.177240 6.720037 1 3  20.160110
pair_coeff 6  25 wf/cut 0.114911 6.500271 1 3  19.664048
pair_coeff 6  26 wf/cut 0.119199 5.727792 1 3  17.304816
pair_coeff 6  27 wf/cut 0.044466 5.721075 1 2  18.446519
pair_coeff 6  28 wf/cut 0.045496 5.774273 1 3  18.945453
pair_coeff 6  29 wf/cut 0.112746 5.690244 1 3  18.376635
pair_coeff 6  30 wf/cut 0.084069 5.670323 1 2  18.446089
pair_coeff 6  31 wf/cut 0.061982 5.734399 1 2  18.542585
pair_coeff 6  32 wf/cut 0.042450 5.650784 1 2  17.790449
pair_coeff 6  33 wf/cut 0.129133 6.700631 1 3  19.727245
pair_coeff 6  34 wf/cut 0.095917 5.528169 1 3  18.451302
pair_coeff 6  35 wf/cut 0.066368 5.639869 1 3  17.983294
pair_coeff 6  36 wf/cut 0.132900 5.720099 1 2  17.269851
pair_coeff 6  37 wf/cut 0.117304 5.790530 1 3  17.675599
pair_coeff 6  38 wf/cut 0.042450 5.650784 1 2  17.790449
pair_coeff 6  39 wf/cut 0.061982 5.734399 1 2  18.542585
pair_coeff 6  40 wf/cut 0.114499 5.635038 1 2  18.340318
pair_coeff 6  41 wf/cut 0.080252 5.634644 1 2  18.455944
pair_coeff 6  42 wf/cut 0.075269 5.681162 1 4  18.399376
pair_coeff 6  43 wf/cut 0.042450 5.650784 1 2  17.790449
pair_coeff 6  44 wf/cut 0.075269 5.681162 1 4  18.399376
pair_coeff 6  45 wf/cut 0.133289 6.594355 1 2  19.792161
pair_coeff 6  46 wf/cut 0.132804 5.700813 1 3  18.394835
pair_coeff 6  47 wf/cut 0.089634 5.747427 1 3  18.380257
pair_coeff 6  48 wf/cut 0.059234 5.818643 1 3  19.023649
pair_coeff 6  49 wf/cut 0.048091 5.709236 1 3  18.840315
pair_coeff 6  50 wf/cut 0.103590 6.648133 1 3  18.403659
pair_coeff 7  7  wf/cut 0.079096 5.823522 1 2  17.470565
pair_coeff 7  8  wf/cut 0.082359 6.000582 1 2  18.001747
pair_coeff 7  9  wf/cut 0.262983 6.276474 1 2  18.829421
pair_coeff 7  10 wf/cut 0.056178 5.978735 1 2  17.936206
pair_coeff 7  11 wf/cut 0.058888 6.145089 1 2  18.435268
pair_coeff 7  12 wf/cut 0.153614 6.050040 1 2  18.150121
pair_coeff 7  13 wf/cut 0.328538 6.442440 1 2  19.327321
pair_coeff 7  14 wf/cut 0.249211 6.224557 1 2  18.673672
pair_coeff 7  15 wf/cut 0.084189 5.617299 1 2  16.851896
pair_coeff 7  16 wf/cut 0.001758 6.078759 1 2  18.236278
pair_coeff 7  17 wf/cut 0.150314 5.872796 1 2  17.618389
pair_coeff 7  18 wf/cut 0.092728 5.814546 1 2  17.443637
pair_coeff 7  19 wf/cut 0.088045 5.773404 1 2  17.320213
pair_coeff 7  20 wf/cut 0.053587 6.146988 1 2  18.440965
pair_coeff 7  21 wf/cut 0.295548 7.131761 1 3  21.395283
pair_coeff 7  22 wf/cut 0.207048 7.021761 1 3  21.065283
pair_coeff 7  23 wf/cut 0.297548 7.166761 1 3  21.500283
pair_coeff 7  24 wf/cut 0.192048 6.996761 1 3  20.990283
pair_coeff 7  25 wf/cut 0.145286 6.776995 1 3  20.494220
pair_coeff 7  26 wf/cut 0.150707 6.004516 1 3  18.134989
pair_coeff 7  27 wf/cut 0.056220 5.997799 1 2  19.276692
pair_coeff 7  28 wf/cut 0.057522 6.050997 1 3  19.775625
pair_coeff 7  29 wf/cut 0.142548 5.966968 1 3  19.206807
pair_coeff 7  30 wf/cut 0.106292 5.947047 1 2  19.276261
pair_coeff 7  31 wf/cut 0.078366 6.011124 1 2  19.372757
pair_coeff 7  32 wf/cut 0.053671 5.927508 1 2  18.620621
pair_coeff 7  33 wf/cut 0.163267 6.977356 1 3  20.557417
pair_coeff 7  34 wf/cut 0.121271 5.804893 1 3  19.281474
pair_coeff 7  35 wf/cut 0.083912 5.916593 1 3  18.813467
pair_coeff 7  36 wf/cut 0.168030 5.996823 1 2  18.100024
pair_coeff 7  37 wf/cut 0.148311 6.067254 1 3  18.505771
pair_coeff 7  38 wf/cut 0.053671 5.927508 1 2  18.620621
pair_coeff 7  39 wf/cut 0.078366 6.011124 1 2  19.372757
pair_coeff 7  40 wf/cut 0.144765 5.911762 1 2  19.170491
pair_coeff 7  41 wf/cut 0.101466 5.911368 1 2  19.286116
pair_coeff 7  42 wf/cut 0.095166 5.957887 1 4  19.229548
pair_coeff 7  43 wf/cut 0.053671 5.927508 1 2  18.620621
pair_coeff 7  44 wf/cut 0.095166 5.957887 1 4  19.229548
pair_coeff 7  45 wf/cut 0.168522 6.871079 1 2  20.622333
pair_coeff 7  46 wf/cut 0.167908 5.977537 1 3  19.225007
pair_coeff 7  47 wf/cut 0.113328 6.024151 1 3  19.210429
pair_coeff 7  48 wf/cut 0.074891 6.095367 1 3  19.853822
pair_coeff 7  49 wf/cut 0.060803 5.985960 1 3  19.670488
pair_coeff 7  50 wf/cut 0.130972 6.924857 1 3  19.233832
pair_coeff 8  8  wf/cut 0.085622 6.177670 1 2  18.533011
pair_coeff 8  9  wf/cut 0.267388 6.453698 1 2  19.361095
pair_coeff 8  10 wf/cut 0.060583 6.155039 1 2  18.465116
pair_coeff 8  11 wf/cut 0.063293 6.321457 1 2  18.964372
pair_coeff 8  12 wf/cut 0.158019 6.227214 1 2  18.681642
pair_coeff 8  13 wf/cut 0.332943 6.619692 1 2  19.859075
pair_coeff 8  14 wf/cut 0.253616 6.401799 1 2  19.205397
pair_coeff 8  15 wf/cut 0.088594 5.794220 1 2  17.382659
pair_coeff 8  16 wf/cut 0.001791 6.256001 1 2  18.768002
pair_coeff 8  17 wf/cut 0.154719 6.049989 1 2  18.149967
pair_coeff 8  18 wf/cut 0.097133 5.991525 1 2  17.974575
pair_coeff 8  19 wf/cut 0.092450 5.950365 1 2  17.851094
pair_coeff 8  20 wf/cut 0.057992 6.323326 1 2  18.969977
pair_coeff 8  21 wf/cut 0.298811 7.308835 1 3  21.926505
pair_coeff 8  22 wf/cut 0.210311 7.198835 1 3  21.596505
pair_coeff 8  23 wf/cut 0.300811 7.343835 1 3  22.031505
pair_coeff 8  24 wf/cut 0.195311 7.173835 1 3  21.521505
pair_coeff 8  25 wf/cut 0.151161 6.954070 1 3  21.025443
pair_coeff 8  26 wf/cut 0.156801 6.181591 1 3  18.666212
pair_coeff 8  27 wf/cut 0.058494 6.174874 1 2  19.807914
pair_coeff 8  28 wf/cut 0.059848 6.228072 1 3  20.306848
pair_coeff 8  29 wf/cut 0.148313 6.144043 1 3  19.738030
pair_coeff 8  30 wf/cut 0.110590 6.124121 1 2  19.807484
pair_coeff 8  31 wf/cut 0.081535 6.188198 1 2  19.903980
pair_coeff 8  32 wf/cut 0.055841 6.104582 1 2  19.151844
pair_coeff 8  33 wf/cut 0.169869 7.154430 1 3  21.088640
pair_coeff 8  34 wf/cut 0.126175 5.981968 1 3  19.812697
pair_coeff 8  35 wf/cut 0.087305 6.093667 1 3  19.344690
pair_coeff 8  36 wf/cut 0.174824 6.173897 1 2  18.631247
pair_coeff 8  37 wf/cut 0.154308 6.244328 1 3  19.036994
pair_coeff 8  38 wf/cut 0.055841 6.104582 1 2  19.151844
pair_coeff 8  39 wf/cut 0.081535 6.188198 1 2  19.903980
pair_coeff 8  40 wf/cut 0.150619 6.088836 1 2  19.701714
pair_coeff 8  41 wf/cut 0.105569 6.088442 1 2  19.817339
pair_coeff 8  42 wf/cut 0.099014 6.134961 1 4  19.760771
pair_coeff 8  43 wf/cut 0.055841 6.104582 1 2  19.151844
pair_coeff 8  44 wf/cut 0.099014 6.134961 1 4  19.760771
pair_coeff 8  45 wf/cut 0.175337 7.048153 1 2  21.153556
pair_coeff 8  46 wf/cut 0.174698 6.154611 1 3  19.756230
pair_coeff 8  47 wf/cut 0.117910 6.201226 1 3  19.741652
pair_coeff 8  48 wf/cut 0.077919 6.272442 1 3  20.385045
pair_coeff 8  49 wf/cut 0.063262 6.163035 1 3  20.201711
pair_coeff 8  50 wf/cut 0.136268 7.101932 1 3  19.765054
pair_coeff 9  9  wf/cut 0.419186 6.733634 1 2  20.200902
pair_coeff 9  10 wf/cut 0.212382 6.423549 1 2  19.270647
pair_coeff 9  11 wf/cut 0.215092 6.590388 1 2  19.771164
pair_coeff 9  12 wf/cut 0.309817 6.505249 1 2  19.515747
pair_coeff 9  13 wf/cut 0.484741 6.900050 1 2  20.700151
pair_coeff 9  14 wf/cut 0.405414 6.681589 1 2  20.044767
pair_coeff 9  15 wf/cut 0.240393 6.068281 1 2  18.204842
pair_coeff 9  16 wf/cut 0.393302 6.535691 1 2  19.607074
pair_coeff 9  17 wf/cut 0.306517 6.327983 1 2  18.983948
pair_coeff 9  18 wf/cut 0.248931 6.266295 1 2  18.798886
pair_coeff 9  19 wf/cut 0.244248 6.224651 1 2  18.673952
pair_coeff 9  20 wf/cut 0.209790 6.590551 1 2  19.771652
pair_coeff 9  21 wf/cut 0.465593 7.586817 1 3  22.760451
pair_coeff 9  22 wf/cut 0.377093 7.476817 1 3  22.430451
pair_coeff 9  23 wf/cut 0.467593 7.621817 1 3  22.865451
pair_coeff 9  24 wf/cut 0.362093 7.451817 1 3  22.355451
pair_coeff 9  25 wf/cut 0.334465 7.232052 1 3  21.859389
pair_coeff 9  26 wf/cut 0.346944 6.459572 1 3  19.500157
pair_coeff 9  27 wf/cut 0.129425 6.452855 1 2  20.641860
pair_coeff 9  28 wf/cut 0.132422 6.506053 1 3  21.140793
pair_coeff 9  29 wf/cut 0.328162 6.422024 1 3  20.571976
pair_coeff 9  30 wf/cut 0.244695 6.402103 1 2  20.641429
pair_coeff 9  31 wf/cut 0.180407 6.466180 1 2  20.737926
pair_coeff 9  32 wf/cut 0.123556 6.382564 1 2  19.985790
pair_coeff 9  33 wf/cut 0.375859 7.432412 1 3  21.922586
pair_coeff 9  34 wf/cut 0.279179 6.259950 1 3  20.646643
pair_coeff 9  35 wf/cut 0.193175 6.371649 1 3  20.178635
pair_coeff 9  36 wf/cut 0.386823 6.451879 1 2  19.465192
pair_coeff 9  37 wf/cut 0.341429 6.522310 1 3  19.870940
pair_coeff 9  38 wf/cut 0.123556 6.382564 1 2  19.985790
pair_coeff 9  39 wf/cut 0.180407 6.466180 1 2  20.737926
pair_coeff 9  40 wf/cut 0.333265 6.366818 1 2  20.535659
pair_coeff 9  41 wf/cut 0.233585 6.366424 1 2  20.651285
pair_coeff 9  42 wf/cut 0.219082 6.412943 1 4  20.594717
pair_coeff 9  43 wf/cut 0.123556 6.382564 1 2  19.985790
pair_coeff 9  44 wf/cut 0.219082 6.412943 1 4  20.594717
pair_coeff 9  45 wf/cut 0.387957 7.326135 1 2  21.987502
pair_coeff 9  46 wf/cut 0.386544 6.432593 1 3  20.590176
pair_coeff 9  47 wf/cut 0.260893 6.479207 1 3  20.575598
pair_coeff 9  48 wf/cut 0.172408 6.550423 1 3  21.218990
pair_coeff 9  49 wf/cut 0.139976 6.441016 1 3  21.035656
pair_coeff 9  50 wf/cut 0.301512 7.379913 1 3  20.599000
pair_coeff 10 10 wf/cut 0.005578 6.265999 1 2  18.797998
pair_coeff 10 11 wf/cut 0.008288 6.390933 1 2  19.172799
pair_coeff 10 12 wf/cut 0.103013 6.199730 1 2  18.599189
pair_coeff 10 13 wf/cut 0.277937 6.589117 1 2  19.767352
pair_coeff 10 14 wf/cut 0.198610 6.371784 1 2  19.115351
pair_coeff 10 15 wf/cut 0.033589 5.781665 1 2  17.344995
pair_coeff 10 16 wf/cut 0.186498 6.226104 1 2  18.678313
pair_coeff 10 17 wf/cut 0.099713 6.022606 1 2  18.067817
pair_coeff 10 18 wf/cut 0.042127 5.974331 1 2  17.922994
pair_coeff 10 19 wf/cut 0.037444 5.935671 1 2  17.807014
pair_coeff 10 20 wf/cut 0.002986 6.718012 1 4  20.154035
pair_coeff 10 21 wf/cut 0.258789 7.353000 1 3  22.058999
pair_coeff 10 22 wf/cut 0.170289 7.243000 1 3  21.728999
pair_coeff 10 23 wf/cut 0.260789 7.388000 1 3  22.163999
pair_coeff 10 24 wf/cut 0.155289 7.218000 1 3  21.653999
pair_coeff 10 25 wf/cut 0.038582 6.998234 1 3  21.157937
pair_coeff 10 26 wf/cut 0.040022 6.225755 1 3  18.798705
pair_coeff 10 27 wf/cut 0.014930 6.219038 1 2  19.940408
pair_coeff 10 28 wf/cut 0.015276 6.272236 1 3  20.439341
pair_coeff 10 29 wf/cut 0.037855 6.188207 1 3  19.870523
pair_coeff 10 30 wf/cut 0.028227 6.168286 1 2  19.939977
pair_coeff 10 31 wf/cut 0.020811 6.232362 1 2  20.036473
pair_coeff 10 32 wf/cut 0.014253 6.148747 1 2  19.284338
pair_coeff 10 33 wf/cut 0.043357 7.198594 1 3  21.221133
pair_coeff 10 34 wf/cut 0.032205 6.026132 1 3  19.945190
pair_coeff 10 35 wf/cut 0.022284 6.137831 1 3  19.477183
pair_coeff 10 36 wf/cut 0.044622 6.218062 1 2  18.763740
pair_coeff 10 37 wf/cut 0.039385 6.288493 1 3  19.169488
pair_coeff 10 38 wf/cut 0.014253 6.148747 1 2  19.284338
pair_coeff 10 39 wf/cut 0.020811 6.232362 1 2  20.036473
pair_coeff 10 40 wf/cut 0.038444 6.133001 1 2  19.834207
pair_coeff 10 41 wf/cut 0.026945 6.132607 1 2  19.949833
pair_coeff 10 42 wf/cut 0.025272 6.179125 1 4  19.893264
pair_coeff 10 43 wf/cut 0.014253 6.148747 1 2  19.284338
pair_coeff 10 44 wf/cut 0.025272 6.179125 1 4  19.893264
pair_coeff 10 45 wf/cut 0.044753 7.092318 1 2  21.286049
pair_coeff 10 46 wf/cut 0.044590 6.198776 1 3  19.888724
pair_coeff 10 47 wf/cut 0.030095 6.245390 1 3  19.874145
pair_coeff 10 48 wf/cut 0.019888 6.316606 1 3  20.517538
pair_coeff 10 49 wf/cut 0.016147 6.207199 1 3  20.334204
pair_coeff 10 50 wf/cut 0.034781 7.146096 1 3  19.897548
pair_coeff 11 11 wf/cut 0.010998 6.534072 1 2  19.602217
pair_coeff 11 12 wf/cut 0.105723 6.366491 1 2  19.099472
pair_coeff 11 13 wf/cut 0.280647 6.755935 1 2  20.267806
pair_coeff 11 14 wf/cut 0.201320 6.538604 1 2  19.615811
pair_coeff 11 15 wf/cut 0.036299 5.946969 1 2  17.840906
pair_coeff 11 16 wf/cut 0.189208 6.392943 1 2  19.178829
pair_coeff 11 17 wf/cut 0.102423 6.189365 1 2  18.568094
pair_coeff 11 18 wf/cut 0.044837 6.140212 1 2  18.420636
pair_coeff 11 19 wf/cut 0.040154 6.101248 1 2  18.303743
pair_coeff 11 20 wf/cut 0.005696 6.607723 1 2  19.823170
pair_coeff 11 21 wf/cut 0.261499 7.487036 1 3  22.461109
pair_coeff 11 22 wf/cut 0.172999 7.377036 1 3  22.131109
pair_coeff 11 23 wf/cut 0.263499 7.522036 1 3  22.566109
pair_coeff 11 24 wf/cut 0.157999 7.352036 1 3  22.056109
pair_coeff 11 25 wf/cut 0.054176 7.132271 1 3  21.560046
pair_coeff 11 26 wf/cut 0.056197 6.359792 1 3  19.200815
pair_coeff 11 27 wf/cut 0.020964 6.353075 1 2  20.342518
pair_coeff 11 28 wf/cut 0.021449 6.406273 1 3  20.841451
pair_coeff 11 29 wf/cut 0.053155 6.322244 1 3  20.272633
pair_coeff 11 30 wf/cut 0.039635 6.302322 1 2  20.342087
pair_coeff 11 31 wf/cut 0.029222 6.366399 1 2  20.438583
pair_coeff 11 32 wf/cut 0.020013 6.282783 1 2  19.686447
pair_coeff 11 33 wf/cut 0.060880 7.332631 1 3  21.623243
pair_coeff 11 34 wf/cut 0.045221 6.160169 1 3  20.347300
pair_coeff 11 35 wf/cut 0.031290 6.271868 1 3  19.879293
pair_coeff 11 36 wf/cut 0.062656 6.352098 1 2  19.165850
pair_coeff 11 37 wf/cut 0.055304 6.422529 1 3  19.571597
pair_coeff 11 38 wf/cut 0.020013 6.282783 1 2  19.686447
pair_coeff 11 39 wf/cut 0.029222 6.366399 1 2  20.438583
pair_coeff 11 40 wf/cut 0.053981 6.267037 1 2  20.236317
pair_coeff 11 41 wf/cut 0.037835 6.266644 1 2  20.351942
pair_coeff 11 42 wf/cut 0.035486 6.313162 1 4  20.295374
pair_coeff 11 43 wf/cut 0.020013 6.282783 1 2  19.686447
pair_coeff 11 44 wf/cut 0.035486 6.313162 1 4  20.295374
pair_coeff 11 45 wf/cut 0.062840 7.226354 1 2  21.688159
pair_coeff 11 46 wf/cut 0.062611 6.332812 1 3  20.290833
pair_coeff 11 47 wf/cut 0.042259 6.379427 1 3  20.276255
pair_coeff 11 48 wf/cut 0.027926 6.450643 1 3  20.919648
pair_coeff 11 49 wf/cut 0.022673 6.341236 1 3  20.736314
pair_coeff 11 50 wf/cut 0.048838 7.280133 1 3  20.299658
pair_coeff 12 12 wf/cut 0.200448 6.277851 1 2  18.833553